 # Version information for this restart file 
 # current date 2022-11-29 20:03:57.723
 # current working dir /scratch/work/courses/CHEM-GA-2671-2022fa/ns3539/comp-lab-class/Week12/Runs/Proton
 # Program compiled at                              Sat Dec 12 18:27:15 EST 2020
 # Program compiled on                                         cs001.nyu.cluster
 # Program compiled for                                                nyu-intel
 # Source code revision number                                       git:8c64c6e
 &GLOBAL
   PRINT_LEVEL  LOW
   PROJECT_NAME proton_aimd_1ns_every0.5fs
   RUN_TYPE  MD
   WALLTIME 21600
 &END GLOBAL
 &MOTION
   &GEO_OPT
     OPTIMIZER  BFGS
     MAX_ITER  100
     MAX_DR     3.0000000000000001E-03
     &BFGS
     &END BFGS
   &END GEO_OPT
   &MD
     ENSEMBLE  NVT
     STEPS  2000
     TIMESTEP     4.9999999999999994E-01
     STEP_START_VAL  2000
     TIME_START_VAL     9.9999999999998226E+02
     ECONS_START_VAL    -1.1027954174996337E+03
     TEMPERATURE     3.0000000000000000E+02
     &THERMOSTAT
       TYPE  GLE
       REGION  MASSIVE
       &GLE
         NDIM  5
         A_SCALE     1.0000000000000000E+00
         A_LIST     1.8595758612559999E+02    2.7263853498399998E-01    1.1526100454610001E+01   -3.6414578262600003E+01 \
             2.3173375816020001E+02
         A_LIST    -2.7809524712060002E-01    8.5951591808710006E-05    7.2189048017650004E-01   -1.9844539343859999E-01 \
             4.2409257583420001E-01
         A_LIST    -1.4825808131210000E+01   -7.2189048017650004E-01    1.3590902121280000E+00    5.1498896280349999E+00 \
            -9.9949268450990001E+00
         A_LIST    -1.0372189126880000E+01    1.9844539343859999E-01   -5.1498896280349999E+00    2.6661910891169999E+01 \
             1.1507715495310000E+01
         A_LIST     2.1801346360420001E+02   -4.2409257583420001E-01    9.9949268450990001E+00   -1.1507715495310000E+01 \
             3.0958394565589998E+02
         &THERMOSTAT_ENERGY
               1.7053470339466171E-03
              -8.5246064079953342E-05
              -5.8777691887529305E-03
               4.7675405730267665E-03
              -1.3069098501749730E-02
              -8.0904834085046508E-04
              -2.8732651292055853E-04
               3.1913579404089102E-03
               5.2252611278548224E-03
               3.8842216052116900E-03
               5.4788840098666247E-03
              -2.4871231507811974E-04
              -1.5657310647120375E-02
              -6.5003750471806228E-04
               6.8458855620035369E-03
              -1.3827250266174179E-02
               9.3273566405759137E-03
              -2.8788395146470000E-04
               2.2890914409604522E-03
              -5.1948290276728004E-03
              -5.1681542582948268E-03
               1.0147731451014261E-02
              -1.7880011896941744E-02
              -8.2959827612968384E-03
               6.3908574942230191E-03
              -9.6255601420907021E-03
               7.7854409776747123E-03
               3.8566290119972178E-03
               4.2141041579256758E-03
               3.9580022613484450E-03
               2.9148800059188317E-03
              -4.7487222412912226E-03
               6.6049627417477316E-03
               2.1939584410011928E-03
              -1.0542756632062253E-03
               1.5285004275234170E-02
               1.0207305620555576E-03
              -1.8184809496721241E-03
              -2.2323380557423837E-03
               7.5549469014947099E-04
               1.2913575064128994E-02
              -1.1815453989491461E-02
               6.3194092310034852E-03
               6.2209282514748927E-03
              -1.7874841623185902E-03
               1.7849328766910203E-03
              -9.0533930780981996E-03
               5.0649633164573937E-03
               2.2959137449209657E-03
               6.3839231021463614E-03
               6.4667477244464782E-04
              -5.3063958733344354E-03
              -6.3260504028172264E-03
               8.2614046090726022E-04
              -8.2234418461500560E-03
               8.3033304050370484E-03
              -5.7664122970854945E-03
              -5.6209846750948592E-03
               9.0911324126155147E-03
               4.6844120590594914E-03
              -6.5070603301547536E-03
               1.1462305998129643E-03
               1.2692314214010439E-02
              -9.2499461039734759E-03
               2.2280072215582129E-03
               3.2664823487028377E-03
              -6.4144889104683685E-03
               1.0702746785475798E-02
               4.7234388640660921E-03
               8.3519540414971408E-03
              -1.1471551728627108E-02
               3.0938602985497794E-03
              -5.8225842242103565E-03
               1.3408162077545953E-03
              -4.9119023810322423E-03
              -1.1012256527716785E-02
               1.1405922718376052E-02
               1.0937233425551876E-02
               1.4947620666757824E-02
              -5.5990748526723970E-03
              -1.9478354870110406E-03
              -6.0790929566974881E-03
               4.1237117413202530E-03
              -1.3834117856038183E-03
               4.5846852733015427E-03
               6.8098714212417675E-03
               9.2684620152076107E-04
              -1.4501606651304979E-02
               1.4008396578235511E-02
              -9.4634229641686746E-03
               1.7966063627101220E-03
              -4.2044407956704968E-03
               1.9117940709126996E-03
              -4.6946112633025850E-03
              -6.4634188702820047E-03
               9.0819071282838316E-03
               1.7164413670918458E-03
               4.4616161828926627E-03
               3.1748997768493254E-03
               2.0828292802766465E-03
               6.2829108310347246E-03
               2.5670097962384817E-03
              -1.2137402649726721E-02
               4.3920494532160691E-03
               8.9935470346153464E-03
               1.6139862596512084E-02
               4.8968398226085169E-03
              -5.3128555619314666E-03
               9.6793949939298681E-03
              -2.2400866772156304E-03
               4.1488554889006924E-03
               1.5168183537381963E-04
               6.7107056091425888E-03
               6.2206466350160153E-03
              -3.9683031516144105E-03
               1.6044968500868496E-03
              -9.5562232868846662E-03
              -1.8646823594691131E-04
               3.3604170442840570E-03
               2.5550837887994421E-03
               7.6678217024354781E-04
              -1.2798757747577321E-03
               3.7433069396454891E-03
               8.8615330507713815E-03
              -7.4857493707097432E-03
              -9.8632813829165264E-03
               1.0441266914893787E-02
              -5.8913234059054919E-03
              -4.9549998783514088E-05
               6.7119164683530777E-03
              -7.6070963793190404E-03
               5.8335157552659844E-03
              -3.6856566310472395E-03
              -3.4348499789552860E-03
              -9.0423240131605638E-04
               7.3600553050568859E-03
              -4.4807421114105191E-03
              -7.3427559895923198E-03
               3.1230565327870011E-03
              -6.6227980018772575E-04
               9.9354992748072681E-04
               6.1126313029896354E-03
               8.2918886895560484E-03
              -4.9113884571243098E-03
              -6.8064635939220170E-03
              -1.0743044278607176E-02
               1.1216819899438010E-02
              -5.8120740826550716E-03
              -7.0950960835418865E-03
               1.2622918137395979E-02
              -1.2982795999936621E-02
               1.5965481885300791E-02
              -1.1063269037350455E-02
               2.7837590818866192E-03
               2.6616546983664318E-03
               2.3060728124927616E-03
              -1.8452540368336713E-03
               2.4177779512203293E-04
              -2.6520794707449412E-03
               1.3618959096227035E-03
              -1.0221664069028215E-03
              -4.2414960229959359E-03
               1.4666330901101710E-03
               1.1939964305393350E-03
               1.2661963554209760E-02
               1.6278905883183224E-02
               3.4163379469561552E-03
              -3.0082130455607529E-02
              -2.6788163087551938E-03
              -1.4120598183961524E-04
              -5.4573332954005102E-04
               3.0302456969524194E-03
              -1.1354761337921992E-03
               7.0321154177960211E-03
               5.3270195916941361E-03
               1.4008674558495044E-02
              -2.7066925622614448E-02
               1.2317681645416894E-03
              -3.9980560425948797E-03
               8.9512740887494873E-03
               3.1786146147803986E-03
              -5.3520559775323186E-03
               1.8701460616516771E-03
              -1.6657387351951956E-02
               1.5967896772059436E-02
              -5.6384635587347067E-04
              -1.0153356823017554E-02
              -6.9080347305769938E-04
              -2.0158922513025183E-03
               1.6955621204426039E-03
               7.5461871778516121E-03
               5.0530478370149675E-04
              -6.4076945106730475E-03
               1.2110234306548256E-02
               2.1624027394932599E-03
              -1.2619733536053646E-03
              -8.0069865204861600E-03
               5.1303184390650240E-03
              -1.5469966104161026E-03
              -2.1664766592332475E-03
              -6.4227820238342073E-03
              -7.3875055087130890E-04
               7.7548930718626952E-03
               1.0785094023894127E-02
              -5.6182548648774453E-03
               8.2977961637969860E-03
              -1.0020069201676890E-02
              -3.4837278327462914E-04
               2.9357554493648751E-03
               1.8110020766719216E-03
               3.0526137005058478E-03
              -9.0538472123899930E-03
               1.0154539709682326E-02
              -2.3068405447882077E-03
               7.6357488606202482E-03
               2.6911225440921457E-03
              -8.2209105877086783E-03
               7.9195003383113263E-03
               1.1329593418817380E-03
              -9.2084396714367470E-03
               1.0982097029536176E-03
              -4.8412246231933570E-03
               2.6085766145910291E-03
              -2.8811630818170952E-03
               4.7888844141512907E-03
               4.8788231352228937E-03
               8.0376249573795445E-04
               2.1028483587537910E-03
              -6.2881757164247635E-04
              -7.9999918806733187E-03
               6.3279995560976306E-04
              -5.0705357202843341E-03
               1.3394674062134383E-02
              -4.3487456694144442E-03
               1.7297023971064958E-03
               1.9773774157630986E-03
              -4.4912005888406235E-04
              -1.7813687794108455E-03
               1.7927532907764676E-04
               4.0850081839659573E-03
               4.4042468292259324E-03
              -5.2252025466106369E-03
              -2.4242643114978607E-03
               4.9918021536403769E-05
               6.3823262476931592E-03
               1.4816328640351165E-03
              -5.2379311864383538E-03
               7.1563985230387065E-03
               1.4479065284761638E-03
              -5.1042819394309640E-03
               8.3203227658252363E-03
              -1.0694116392310903E-02
              -1.2203317769394354E-02
              -2.4810879586924291E-03
               5.4184221560983634E-03
               1.9726430324895191E-04
               1.6673943886374672E-02
              -1.1962345125418659E-02
               6.5171327058719340E-03
              -1.7934515017601838E-02
               1.0872654349944184E-02
               6.2432144238273651E-03
               1.0585606072203090E-03
              -4.9055830364206346E-03
              -1.7715329482686551E-03
              -1.1088671191856855E-02
               1.0072602794178607E-02
               2.4525218532077766E-03
               2.6223073925496121E-03
               4.2502270343297843E-03
               2.7623908005602067E-02
               8.3601720396326122E-03
               1.6142083800009557E-02
               5.2752581282457045E-03
               4.6475950509525417E-03
              -3.3005929828253309E-03
              -5.8425689799875800E-03
               1.3711191811615907E-02
              -1.0424275460914503E-02
               8.5333375082768809E-03
              -1.0171527576057167E-02
              -2.4817270715179933E-03
              -2.1680592611199858E-03
               3.0620561223737883E-03
               5.0111755162595521E-03
              -7.0369015949021613E-03
               5.1886840074753604E-03
               8.0584848909822614E-03
              -5.7224160345258372E-03
               5.9545348628820645E-03
               4.3832854434680806E-03
               4.6744313457634436E-03
              -3.7361780392698900E-03
              -1.1962982739392727E-03
               7.5533233473556475E-03
               1.4829382074914754E-04
              -2.0070127763422756E-02
               6.6059495170490883E-03
               1.4389372406294053E-02
              -4.8177382593272708E-03
              -1.9682886645759901E-03
               1.0082803065914357E-02
               5.0126459082599053E-03
               3.0366281189848642E-02
              -9.9852417108224206E-03
              -1.3000500792288268E-02
              -4.6091177790421028E-03
               1.3093563448467399E-03
               6.2128010039133302E-03
               6.3127755271211138E-03
              -3.3187096528066698E-03
              -5.6719533215243848E-03
              -3.8317180803376970E-03
              -2.2971876934039441E-03
               4.7210566667884929E-03
              -7.0778738872928648E-04
              -8.0356059333221222E-03
              -6.2836178068644312E-03
              -1.6013622555546985E-02
              -1.1085943163612022E-02
              -8.3309563052120020E-04
               4.5153086729094767E-04
               8.0150782654207098E-03
               6.1181396816650812E-04
              -2.3242257860482700E-03
               2.2375967264333271E-02
               5.6179886750224893E-03
               1.5760498345295999E-03
               7.7741813774939554E-04
               4.3089089708065543E-03
              -2.4203267661961612E-03
               4.9859438530002855E-03
               7.9119957060550389E-03
              -8.2130282136425713E-03
               1.3069041503532078E-03
              -1.2426200964303566E-03
              -3.4086112429872374E-04
              -3.3821349418292177E-03
               5.4982792818865133E-03
               3.4455855659272041E-03
              -6.3533862765956664E-03
               2.8692149939213664E-03
               1.5821795154476754E-02
               5.2821262152438254E-05
              -2.0170914313319978E-03
              -9.8957264414306937E-04
               9.3714791389072349E-03
              -1.1284528148774658E-02
               1.0444763217867390E-02
               1.3095860731281604E-03
              -7.4027494691464744E-03
              -2.9542041761455888E-03
              -9.2041491956500326E-03
               9.0456826138941623E-03
               2.2934107931226835E-03
              -4.2754666817735763E-03
               4.0040824133632299E-03
              -9.2825232692685805E-03
              -1.2830304870567402E-02
               6.9988976643402543E-03
               1.9876352435633632E-03
              -2.9801248256938373E-03
               1.7497970028117111E-02
              -6.2617910832144267E-03
              -2.7439292243399264E-03
              -1.5652633358669862E-03
              -4.8199026182846447E-04
               6.1697984949881986E-03
              -1.1487715441554721E-02
               4.0257852890112191E-03
               1.0769208694036973E-03
               9.5642975267295916E-03
               5.2598583871770323E-04
              -3.3155457965994253E-03
               3.0321006791092296E-03
               1.9485207497556968E-03
              -7.6138385710433900E-03
              -1.9026334318807389E-02
               3.8702142587603654E-03
               7.5986851822358653E-03
               3.8597725062365987E-03
               3.3346783065431318E-03
              -3.8499619968617978E-03
              -2.3050337296662200E-03
              -8.9905841051167116E-03
              -2.3225259528991426E-03
              -3.9316758732351408E-04
               9.7123752560841780E-04
               1.4755979947766403E-03
               1.0145676708564924E-03
              -7.4674605690731345E-03
               8.1763777592045780E-03
               2.2187214705430645E-03
              -5.7760955842587917E-03
               1.2196879649442969E-02
              -2.6156536825240415E-03
              -2.3595520164077467E-03
              -6.4706188351550138E-03
               5.1304294910129123E-03
              -1.7803799352952739E-03
               4.1380547470005581E-03
               1.5074502616283811E-03
              -1.0749325357281311E-03
              -9.3737337904164116E-03
               2.0277864952014941E-03
              -5.4323101980753496E-03
               4.0880289374721490E-03
              -4.9248438349092029E-04
               5.3013777051720166E-04
              -1.9263156993450442E-03
               1.5375378197356596E-03
               1.8628098165265944E-03
              -4.8372868703441059E-04
               7.7368969925069205E-03
              -4.3534410043270478E-03
               7.4733255061289411E-03
              -3.8764324248472008E-03
               3.1351989258627600E-04
              -1.3209132053476911E-03
              -2.8668139193655249E-03
               6.6804740626463452E-03
               6.3109407709741943E-03
              -4.6388885713098630E-03
              -7.3494470003368636E-04
               1.1158604935871133E-02
              -7.2110879835008161E-03
               5.4873808847783019E-03
              -5.0872489572164068E-03
              -2.2982893085118738E-03
               2.3076368330881788E-03
              -3.4091525075807803E-03
              -7.9273110823136293E-03
              -2.2379529273144020E-02
               1.5646141800967076E-02
               1.3790463609077068E-02
               2.9699584353640980E-03
              -4.0671424930612552E-03
              -1.9790915120889059E-04
              -1.1268911963944115E-02
              -4.1397625958262485E-03
               1.6716006681139414E-02
              -7.0914772480224764E-03
              -7.9606190759307343E-03
               1.6408800394527634E-02
               1.1633012282543350E-03
               7.1263552021627536E-03
               1.1783799203336385E-03
               1.0796844981610879E-02
               7.0016969917802612E-03
              -2.0525709835052556E-03
              -2.4374360185154620E-03
              -1.0594792485337293E-02
               2.9761034881368030E-03
              -1.0201577020514580E-03
              -2.0398055225980564E-03
               9.3443326208219853E-05
              -8.2201679436464219E-03
              -2.2302249876262895E-02
               5.2877116404830265E-03
              -2.8560513385238748E-03
               1.6414621316434810E-02
               1.2058872367548148E-02
              -4.0244216796414545E-03
               7.1116011731249991E-03
              -2.0210567914069472E-03
              -3.6034691019177921E-03
              -8.6771580138213355E-03
               3.7721216793739618E-03
               1.2116203144750797E-02
              -7.0091494512346513E-03
              -6.2981579639573137E-03
              -4.4959038144642228E-04
               3.2682189847699486E-03
               2.0153454770895779E-03
               8.9015232031220939E-05
               2.3325299437308898E-02
              -5.5855204181624899E-03
               2.4706635637245554E-03
              -5.4134932395823662E-03
              -1.2076437658865539E-02
               2.3195682650522364E-03
               1.8277666409389319E-03
               1.0141798050398370E-02
               5.9578418885898928E-03
              -6.9368081229736782E-03
              -2.8061693168359983E-03
              -9.3249511729969949E-03
              -1.0906530294809297E-03
               1.2814410151965203E-02
               2.7627918376494005E-03
               8.0976102505597360E-03
               6.8354093044595094E-03
               8.1816931624910400E-03
              -4.0507519562617460E-03
              -7.3716070809645689E-03
              -4.6170104315445002E-03
               4.9498766515543025E-03
               4.5660421177515220E-05
               1.7285395565562695E-03
               5.6136535355389922E-03
               2.3087341351157699E-03
               1.0010141538113183E-02
              -2.0620622690042171E-02
               1.5181628422646403E-02
               7.5774359498952002E-03
              -1.0348549429081226E-02
              -6.4460862174958609E-03
               2.1897693988237039E-03
               4.7307341750636566E-03
              -1.5561092584351686E-03
              -2.5895267372525129E-03
               1.1428278566778851E-02
              -6.0764871847319981E-03
               4.0240142867902402E-03
               5.2588951728254818E-03
              -2.0806678890678946E-02
              -1.0724757637198568E-02
               4.0091113010047637E-03
               1.6034165372071489E-03
               9.4951133099558729E-03
              -9.0577738566117848E-03
              -2.9460378103099007E-03
              -1.4984882493857161E-03
              -6.2184643780660584E-03
               7.0921510628215662E-03
               2.2970869897048700E-03
              -4.7172393714737405E-03
              -3.8458988537616924E-03
              -4.1085014297721387E-04
               5.2326461044851919E-03
               1.9225188539166856E-04
               8.7341978117890570E-03
              -8.1451144384170372E-03
              -4.0117337584412492E-04
              -5.2321189937987109E-03
              -2.2556218891272477E-03
              -2.9797590964677767E-03
              -1.3578650952204825E-03
               3.9606204202449653E-03
              -1.3881156169959713E-03
               1.3512332147062351E-03
               1.0607396970161319E-03
              -5.2425472186014670E-03
              -5.8437248089115198E-04
               5.8823478431119561E-04
              -6.8127858898646525E-03
              -9.5424795587211657E-04
               1.1527529943550004E-03
               4.8499292597988849E-03
               7.7491849802742386E-03
              -4.8642457920917183E-03
              -3.0294473128719243E-03
              -3.8478975493241602E-03
              -3.3257526468166341E-03
               3.8774881048341358E-03
              -7.5059854748332428E-03
              -1.6345841216905284E-03
               1.6959672495284615E-03
               1.4240924279996759E-02
               4.2432463813899483E-03
               3.8976839753814946E-03
               3.1572910578722448E-03
               3.4145049314953484E-03
              -1.7049747921694166E-03
              -5.9935336709159449E-03
              -1.6369968095135737E-03
               8.7635793815858502E-03
              -2.4805272078589585E-03
              -6.2508795156510470E-03
               5.6874313389639799E-03
              -6.6174145714416920E-03
               3.1591882549386139E-03
              -3.8793312951994460E-04
              -1.5235619885190109E-02
               4.9864386777783310E-03
               9.3961636259754285E-03
               1.5078322446680874E-02
              -7.8148125614485395E-03
              -3.6672164408011925E-03
         &END THERMOSTAT_ENERGY
         &RNG_INIT
Wiener process for Thermostat # 1        1 F T T  -4.3866331554119464E-01        3463026290.0         996283881.0        3077134961.0        1575188103.0         352198642.0        1255594993.0             12345.0             12345.0             12345.0             12345.0             12345.0             12345.0             12345.0             12345.0             12345.0             12345.0             12345.0             12345.0
Wiener process for Thermostat # 2        1 F T T   6.1664168869435698E-01         581397078.0        3867423482.0         327967633.0        1486938113.0          26429212.0        4093174459.0        3692455944.0        1366884236.0        2968912127.0         335948734.0        4161675175.0         475798818.0        3692455944.0        1366884236.0        2968912127.0         335948734.0        4161675175.0         475798818.0
Wiener process for Thermostat # 3        1 F T T   2.0518696979926636E+00        1062843694.0        3278483557.0        2630284801.0         342499437.0         508306288.0         570022504.0        1015873554.0        1310354410.0        2249465273.0         994084013.0        2912484720.0        3876682925.0        1015873554.0        1310354410.0        2249465273.0         994084013.0        2912484720.0        3876682925.0
Wiener process for Thermostat # 4        1 F T T   8.6483655468840070E-01         858988242.0         878260951.0        1341305949.0        1687735708.0        1261279903.0        1615458589.0        2338701263.0        1119171942.0        2570676563.0         317077452.0        3194180850.0         618832124.0        2338701263.0        1119171942.0        2570676563.0         317077452.0        3194180850.0         618832124.0
Wiener process for Thermostat # 5        1 F T T  -7.2623034709222295E-02        3503246388.0        3640749438.0          80160185.0        4050541932.0        1809135917.0         826251710.0        1597262096.0        3906379055.0        3312112953.0        1016013135.0        4099474108.0         275305423.0        1597262096.0        3906379055.0        3312112953.0        1016013135.0        4099474108.0         275305423.0
Wiener process for Thermostat # 6        1 F T T   2.6094790259997280E+00        1648662560.0         298744963.0         276080774.0        3452610735.0        2129471280.0        4132861437.0          97147054.0        3131372450.0         829345164.0        3691032523.0        3006063034.0        4259826321.0          97147054.0        3131372450.0         829345164.0        3691032523.0        3006063034.0        4259826321.0
Wiener process for Thermostat # 7        1 F T T   1.3118545096244869E+00        4025695046.0        1027992126.0        3217973651.0        2155997853.0        1780084567.0        1907814450.0         796079799.0        2105258207.0         955365076.0        2923159030.0        4116632677.0        3067683584.0         796079799.0        2105258207.0         955365076.0        2923159030.0        4116632677.0        3067683584.0
Wiener process for Thermostat # 8        1 F T T   7.1524753302764935E-02        2631328646.0          66904958.0        3191287979.0        3452779318.0        2048731614.0        3759050068.0        3281794178.0        2616230133.0        1457051261.0        2762791137.0        2480527362.0        2282316169.0        3281794178.0        2616230133.0        1457051261.0        2762791137.0        2480527362.0        2282316169.0
Wiener process for Thermostat # 9        1 F T T  -1.0980465140389938E-01        1977246253.0        1903248984.0        3508262652.0        2466127224.0         300284070.0         767034957.0        3777646647.0        1837464056.0        4204654757.0         664239048.0        4190510072.0        2959195122.0        3777646647.0        1837464056.0        4204654757.0         664239048.0        4190510072.0        2959195122.0
Wiener process for Thermostat # 10       1 F T T   1.9081094228418396E+00         405211316.0        3215252316.0        3029076279.0        3899943421.0         886526099.0         586515832.0        4215590817.0        3862461878.0        1087200967.0        1544910132.0         936383720.0        1611370123.0        4215590817.0        3862461878.0        1087200967.0        1544910132.0         936383720.0        1611370123.0
Wiener process for Thermostat # 11       1 F T T  -5.3344054384789541E-01        3450000619.0        1059116059.0        3916567347.0         635813254.0        3901690603.0        3696418470.0        1683636369.0         362165168.0         814316280.0         869382050.0         980203903.0        2062101717.0        1683636369.0         362165168.0         814316280.0         869382050.0         980203903.0        2062101717.0
Wiener process for Thermostat # 12       1 F T T   8.9448207812820613E-01        1696219248.0        1783691089.0        1685873716.0        1285524479.0        2726140602.0        4269630803.0         272317999.0         166758548.0         310112982.0         201045826.0        1680231254.0         118290799.0         272317999.0         166758548.0         310112982.0         201045826.0        1680231254.0         118290799.0
Wiener process for Thermostat # 13       1 F T T  -1.0297203341400047E+00        4019568919.0        3484227797.0         947541978.0        4224885921.0        2127446270.0         502669027.0        2245755202.0        1652682525.0        2865544364.0         721509566.0         209733568.0         592362218.0        2245755202.0        1652682525.0        2865544364.0         721509566.0         209733568.0         592362218.0