 # Version information for this restart file 
 # current date 2022-11-29 20:03:47.466
 # current working dir /scratch/work/courses/CHEM-GA-2671-2022fa/ns3539/comp-lab-class/Week12/Runs/Proton
 # Program compiled at                              Sat Dec 12 18:27:15 EST 2020
 # Program compiled on                                         cs001.nyu.cluster
 # Program compiled for                                                nyu-intel
 # Source code revision number                                       git:8c64c6e
 &GLOBAL
   PRINT_LEVEL  LOW
   PROJECT_NAME proton_aimd_1ns_every0.5fs
   RUN_TYPE  MD
   WALLTIME 21600
 &END GLOBAL
 &MOTION
   &GEO_OPT
     OPTIMIZER  BFGS
     MAX_ITER  100
     MAX_DR     3.0000000000000001E-03
     &BFGS
     &END BFGS
   &END GEO_OPT
   &MD
     ENSEMBLE  NVT
     STEPS  2000
     TIMESTEP     4.9999999999999994E-01
     STEP_START_VAL  1999
     TIME_START_VAL     9.9949999999998238E+02
     ECONS_START_VAL    -1.1027954174996337E+03
     TEMPERATURE     3.0000000000000000E+02
     &THERMOSTAT
       TYPE  GLE
       REGION  MASSIVE
       &GLE
         NDIM  5
         A_SCALE     1.0000000000000000E+00
         A_LIST     1.8595758612559999E+02    2.7263853498399998E-01    1.1526100454610001E+01   -3.6414578262600003E+01 \
             2.3173375816020001E+02
         A_LIST    -2.7809524712060002E-01    8.5951591808710006E-05    7.2189048017650004E-01   -1.9844539343859999E-01 \
             4.2409257583420001E-01
         A_LIST    -1.4825808131210000E+01   -7.2189048017650004E-01    1.3590902121280000E+00    5.1498896280349999E+00 \
            -9.9949268450990001E+00
         A_LIST    -1.0372189126880000E+01    1.9844539343859999E-01   -5.1498896280349999E+00    2.6661910891169999E+01 \
             1.1507715495310000E+01
         A_LIST     2.1801346360420001E+02   -4.2409257583420001E-01    9.9949268450990001E+00   -1.1507715495310000E+01 \
             3.0958394565589998E+02
         &THERMOSTAT_ENERGY
               2.5576077494769631E-03
              -4.3995866335063078E-04
              -5.8206396486407148E-03
               4.5184961885574547E-03
              -1.3077870029907037E-02
              -8.3556203236722433E-04
              -3.2804642408801527E-04
               2.8287135513267257E-03
               4.8817143669290563E-03
               3.7547752634700068E-03
               5.7628701717387480E-03
              -7.4314478956096484E-05
              -1.6001176362380597E-02
              -2.5824356962150780E-04
               6.8553868579349312E-03
              -1.3833096694799372E-02
               9.3059923273836331E-03
              -3.8868434481643038E-04
               2.2534133129362569E-03
              -5.7165088537351402E-03
              -5.1200277114324504E-03
               1.0115188982693039E-02
              -1.8478529495873537E-02
              -7.9465654644237105E-03
               6.0003739332345945E-03
              -9.1587743898119585E-03
               7.8302403072176407E-03
               2.8004226497055939E-03
               4.2150287772884125E-03
               3.8269299707867554E-03
               2.9002812814447809E-03
              -4.9454411024330933E-03
               6.4522190177079787E-03
               2.1953295347993569E-03
              -1.5124252142577151E-03
               1.4959494136638421E-02
               1.0134211475485337E-03
              -1.9727547588320295E-03
              -2.4017620937944410E-03
               7.0636803779357336E-04
               1.2949376529727642E-02
              -1.1837580655726185E-02
               6.1701089251322413E-03
               6.3922490845412074E-03
              -1.6279553571837248E-03
               9.5481636348437307E-04
              -8.8163472817150337E-03
               4.3512121451630189E-03
               1.8201049375849861E-03
               6.5038932907100786E-03
              -2.2502801457253085E-05
              -5.6190206197186676E-03
              -6.5525341558469695E-03
               9.5220309384747817E-04
              -8.1500575439838255E-03
               8.5855506622060877E-03
              -5.6565341593751107E-03
              -5.5718825754012538E-03
               9.2275226582831278E-03
               4.6908879698553292E-03
              -6.3376421374315480E-03
               1.1629186193564346E-03
               1.2730615696440011E-02
              -9.2580940864707764E-03
               2.2099529032861874E-03
               4.5671001991599621E-03
              -6.6375632863974318E-03
               1.0964152288522702E-02
               4.8551904460538671E-03
               8.7027169043884280E-03
              -1.1211565420192334E-02
               2.9649037569500622E-03
              -5.6917916159352454E-03
               1.3755238578748990E-03
              -4.9861134097413870E-03
              -1.1003929432759175E-02
               1.1801948763646162E-02
               1.0920557789618758E-02
               1.5226086038849188E-02
              -5.6045228666490891E-03
              -1.7198172792051351E-03
              -6.0944763926007008E-03
               4.2094183271229766E-03
              -8.5838841048854145E-04
               4.7558783540801288E-03
               5.9984370633162547E-03
               8.5728451847559063E-04
              -1.4314063714554317E-02
               1.3640737843107258E-02
              -1.1345343355030693E-02
               1.7571687943281067E-03
              -4.1954362717729491E-03
               1.8783618570275590E-03
              -4.7254739988263029E-03
              -6.4223483877880981E-03
               9.2777529079606826E-03
               1.6620239963043915E-03
               4.5086997850595206E-03
               2.8088959146785786E-03
               2.0553890593418816E-03
               5.5962719024440733E-03
               1.8045329540301198E-03
              -1.1990814936351624E-02
               3.5788316328376271E-03
               9.1321184142310764E-03
               1.6122101776859812E-02
               4.8452542635563081E-03
              -5.8030535175697803E-03
               9.7533659341169001E-03
              -2.0052122023679190E-03
               4.0730439006186961E-03
              -1.8281532327616627E-04
               6.8748880198027497E-03
               5.8701055284511071E-03
              -3.9378942655488476E-03
               1.5534076348000473E-03
              -8.8477696678897766E-03
              -1.9194103407018927E-04
               3.1983259506864819E-03
               2.4554314976741572E-03
               6.4430501969014618E-04
              -1.7546016368604272E-03
               3.6829817143241221E-03
               8.6511313989206685E-03
              -7.0173222315073908E-03
              -9.4738135605808172E-03
               9.9219784320421361E-03
              -6.1513282467363277E-03
               8.2493065675535646E-05
               6.8048950888287881E-03
              -8.3374513590733640E-03
               5.9028282440946669E-03
              -4.2422525750695980E-03
              -3.1366237755588743E-03
              -7.4563648691666220E-04
               7.2795943344693189E-03
              -4.2634172101887503E-03
              -7.4396364953098993E-03
               3.2687905672403963E-03
              -6.5638223171160092E-04
               1.2879803192557228E-03
               6.2597521542460547E-03
               8.4256384177309150E-03
              -5.2136662564669168E-03
              -6.6654973266546177E-03
              -1.0833633969574092E-02
               1.0826381526584739E-02
              -5.4966762168178630E-03
              -7.1096428622265551E-03
               1.2546682975497334E-02
              -1.3225393093662713E-02
               1.5813057004819931E-02
              -1.0880290813007280E-02
               2.7974248816973780E-03
               2.6926880068568119E-03
               2.0594376151920521E-03
              -1.4184641080432806E-03
               4.5995383104851411E-04
              -2.9407357766122206E-03
               1.5254313741317738E-03
              -1.0648201739700232E-03
              -4.1694875350983132E-03
               1.5179219103220649E-03
               1.1726534782010415E-03
               1.4121409198422124E-02
               1.6524497867236296E-02
               2.8207465922535360E-03
              -3.0411565729955129E-02
              -2.7856515778760696E-03
              -5.9273028137393809E-05
              -3.2177579969871583E-04
               3.0296204370690201E-03
              -1.0179103888590022E-03
               7.1726018329285905E-03
               5.5461645467530657E-03
               1.4037047588683028E-02
              -2.7029375165452046E-02
               1.2018299978592238E-03
              -3.9700656827026922E-03
               8.9238158474737993E-03
               3.3760548968249540E-03
              -5.2521734163465915E-03
               2.0421367833595924E-03
              -1.6455766898984016E-02
               1.6035239475565025E-02
              -1.4212497682056027E-03
              -1.0036134653258628E-02
              -1.6158031327191337E-03
              -2.0398398539758799E-03
               1.5509402284234353E-03
               7.2421358835428953E-03
               1.1523547686790930E-04
              -6.5387502951840155E-03
               1.2271789569119290E-02
               2.2488691121906883E-03
              -1.2897020817997254E-03
              -7.9027982913306340E-03
               5.6279483260931584E-03
              -1.5355744752386475E-03
              -1.8360603384498771E-03
              -5.7633770689538687E-03
              -5.9850693441867303E-04
               7.7267989963789802E-03
               1.0981410507301720E-02
              -5.5528554449327519E-03
               7.6982268225009119E-03
              -9.9239724598270580E-03
              -4.6567384315354438E-04
               2.5429247830275753E-03
               1.9003145076163254E-03
               3.1289600897825239E-03
              -9.0993113212674576E-03
               1.0500675048238504E-02
              -2.2942314314206781E-03
               8.0763295939706870E-03
               2.9955843509027265E-03
              -8.3413185981772824E-03
               7.9710224020828994E-03
               3.1640517457692189E-04
              -9.1273367100276805E-03
               1.4643777588605768E-03
              -4.8944604634956453E-03
               1.9279542116935721E-03
              -2.8397407473638339E-03
               4.4268598413537228E-03
               4.8256912732707116E-03
               1.3181839845597255E-03
               2.1170662537660411E-03
              -4.3482659368613549E-04
              -7.9939939102472921E-03
               6.7289713900711375E-04
              -5.0340148949163718E-03
               1.3334624809430116E-02
              -4.1985566000822625E-03
               2.2809688477086480E-03
               1.7064528746769457E-03
              -4.4540202172778614E-04
              -1.7795659530169836E-03
               1.4859397158759492E-04
               4.1920366203011200E-03
               4.3530896232553554E-03
              -5.7089338361862706E-03
              -2.9564962740329737E-03
              -8.6096782875385593E-04
               6.2930248401971943E-03
               2.6780144756838589E-03
              -5.3583393694698672E-03
               7.1887377459372284E-03
               1.5681019730818674E-03
              -4.9732125307702093E-03
               8.3517082991584335E-03
              -1.0707048428405383E-02
              -1.2315976976715654E-02
              -2.8950710865707540E-03
               5.2962503651771747E-03
               3.3230885240031886E-04
               1.6476710202751332E-02
              -1.2075981278441825E-02
               6.6397876386114739E-03
              -1.7746456922333908E-02
               1.1073089202943741E-02
               6.0603471674008560E-03
               8.1560999929778527E-04
              -4.1541284308463846E-03
              -1.8130563959534208E-03
              -1.1116114757721111E-02
               1.0275625718087902E-02
               2.2632425644531495E-03
               2.5356326763958455E-03
               4.1259692243611678E-03
               2.7150816903167521E-02
               8.2221954476796102E-03
               1.6081046993962914E-02
               5.4974413435778073E-03
               4.5843246427497812E-03
              -3.3369998759561746E-03
              -5.4215427119855466E-03
               1.3710679472078985E-02
              -1.0288608465874542E-02
               8.4463324225123454E-03
              -9.3485310481931511E-03
              -2.3238166811425601E-03
              -2.1132747779100242E-03
               3.2424148493145214E-03
               4.8480367808595680E-03
              -6.7302688701687940E-03
               5.6231097039827309E-03
               7.9954324257792246E-03
              -5.3742970976830735E-03
               6.1475113136969066E-03
               4.4602795534666815E-03
               4.8395497029830644E-03
              -2.9098645216036421E-03
              -1.4355667417266071E-03
               8.3110605707377282E-03
               2.3966823411610807E-07
              -1.9296762275957138E-02
               6.5578134649321804E-03
               1.3857425841227542E-02
              -4.8520060251221360E-03
              -1.8921493116720661E-03
               1.0072602856212198E-02
               5.0146950810410198E-03
               3.0486690736421278E-02
              -1.0214102569270781E-02
              -1.3043609968704862E-02
              -4.6451953147632627E-03
               1.2717265675220176E-03
               6.5746372680538304E-03
               6.3312570336093313E-03
              -3.2235065786580938E-03
              -5.6794532764737112E-03
              -4.3154603262201673E-03
              -2.4612261546343218E-03
               5.1875516086314346E-03
               9.1901129647292169E-07
              -7.8530792810799777E-03
              -6.9119576287113120E-03
              -1.6063568746842467E-02
              -1.1229553810186484E-02
              -1.0429921753911525E-03
               2.5621257945187078E-04
               8.0078697500375346E-03
               5.6680304719290003E-04
              -2.2728273639422594E-03
               2.2769180845638604E-02
               5.4066600835914538E-03
               1.8481611921361987E-03
               7.6883642155305468E-04
               4.2243148650512033E-03
              -2.2709557453107505E-03
               5.0806509489241380E-03
               8.2439572922008431E-03
              -8.3748501417426104E-03
               1.3980599843216239E-03
              -1.2169382789236642E-03
              -5.3317428725667664E-04
              -2.9463692611611000E-03
               5.2408420945195674E-03
               3.8460201318069841E-03
              -6.0278076851696420E-03
               2.6676509102113071E-03
               1.5544416453425703E-02
              -2.8694529994213226E-04
              -1.8352170531380860E-03
              -1.4155841709254779E-03
               9.5707049411896776E-03
              -1.1349154727786826E-02
               1.0437155112319532E-02
               1.0486464849344013E-03
              -7.4106452399994296E-03
              -2.8793957934738421E-03
              -8.4645868678035214E-03
               9.3370777558455815E-03
               2.3027435909181103E-03
              -4.3178953832078261E-03
               3.8980638217102105E-03
              -9.1379328673907041E-03
              -1.2664440131863040E-02
               7.0551630337413150E-03
               2.3469861659445824E-03
              -2.8970202696356265E-03
               1.7196887764996793E-02
              -5.8699691621808331E-03
              -2.7169215616546015E-03
              -1.8010573383579747E-03
              -3.3906623883507971E-04
               6.3645615824740875E-03
              -1.1358580193365433E-02
               4.2953082938173952E-03
               1.0560150874432115E-03
               9.6430145294570547E-03
               4.8656144985270933E-04
              -3.4270613600071802E-03
               3.0195164732740583E-03
               1.9059548805944950E-03
              -7.6232495235482563E-03
              -1.8991460142729288E-02
               3.7713396311318675E-03
               7.6591780683601162E-03
               3.7758615741066031E-03
               3.4157004472936420E-03
              -3.2491303797018019E-03
              -2.5667333766206230E-03
              -9.2311030250737062E-03
              -2.0490298584914333E-03
              -3.4433113304565313E-04
               9.9361733500584709E-04
               1.5632672161101525E-03
               1.3052930046274225E-03
              -7.4318701916249565E-03
               7.9425364255497621E-03
               2.2132380131742852E-03
              -5.6756354645041973E-03
               1.2314867091365112E-02
              -2.5453769072243692E-03
              -2.3593344618654524E-03
              -6.4991603456228718E-03
               4.9231278112363795E-03
              -1.6014388597076692E-03
               4.1145893855126991E-03
               1.2979544086134541E-03
              -1.0426915834546831E-03
              -9.2985762345719619E-03
               1.3605107921856056E-03
              -5.3274946846634400E-03
               4.1150477873056887E-03
              -4.1630406774693213E-04
               5.7636320929805999E-04
              -1.9148245300912713E-03
               4.5377096394123612E-04
               1.6214690290975269E-03
              -2.8357028882874176E-04
               7.9283627527862444E-03
              -4.3135111201774261E-03
               7.4190646633539182E-03
              -4.2203521634001633E-03
               4.3748866039979505E-04
              -1.3283257046640190E-03
              -4.0712108732848373E-03
               6.7592164397212370E-03
               6.3367771637765427E-03
              -4.7300642896497417E-03
              -9.2000064687123412E-04
               1.1664864966198323E-02
              -6.7259377944474423E-03
               5.3186826852147052E-03
              -4.9063439151392088E-03
              -2.3241500344310336E-03
               2.3172907042019403E-03
              -3.9551015497127718E-03
              -7.9173507448704016E-03
              -2.2749867081339047E-02
               1.6190096589026474E-02
               1.3702585517946370E-02
               2.3862198772069791E-03
              -4.1317053838699899E-03
               9.6349701280553087E-05
              -1.0932135383423294E-02
              -4.1846811240116959E-03
               1.6979592860714283E-02
              -7.0398332328661549E-03
              -7.2823341091375580E-03
               1.6834557353033498E-02
               9.5843988296157772E-04
               7.3842709699515688E-03
               1.0213060912925757E-03
               1.0887229617579590E-02
               7.1526816407484622E-03
              -2.1732800502752237E-03
              -2.8729854204246033E-03
              -1.0618416304201803E-02
               2.9769888061726506E-03
              -1.2046171010057648E-03
              -1.8761840400648351E-03
              -5.2034841899145298E-05
              -8.2279890447564293E-03
              -2.2659699551499962E-02
               4.0343968014218204E-03
              -2.6424196153747733E-03
               1.6408271847246345E-02
               1.1968307253958933E-02
              -4.9086364049660261E-03
               7.1117778461845136E-03
              -2.0128605642021546E-03
              -3.8541598106162488E-03
              -8.7896211732504635E-03
               3.7399414514598314E-03
               1.2693502872520640E-02
              -7.1663242471665901E-03
              -6.3746021220830538E-03
              -4.3391458246105793E-04
               2.8657237929043300E-03
               1.9831665905473746E-03
               1.9953902925007620E-06
               2.3252951392558920E-02
              -5.5835000848391027E-03
               3.0144777755176425E-03
              -5.7359700655152911E-03
              -1.2179271921668011E-02
               2.3100629317494123E-03
               1.4457741020975892E-03
               1.0036952785703294E-02
               5.7982541536155622E-03
              -6.7269656865409939E-03
              -2.1912829327430400E-03
              -9.1542393337466377E-03
              -7.0950901870728332E-04
               1.2221716266697930E-02
               2.1121662928629439E-03
               8.1333354809779521E-03
               6.8628004630816378E-03
               8.4284514658355836E-03
              -4.0289438666289657E-03
              -7.1362911519365756E-03
              -4.6896402076232312E-03
               4.9684093324708373E-03
               4.1209099605254591E-05
               1.7038473747036128E-03
               5.7339164871090384E-03
               2.3409984500170787E-03
               9.9482405884258104E-03
              -2.0205735215609432E-02
               1.5069881080652910E-02
               7.7334314810134884E-03
              -1.0400981148918300E-02
              -6.0880162512973847E-03
               2.3425252715884954E-03
               4.7954265414097072E-03
              -1.8133024267914346E-03
              -2.8311812193845694E-03
               1.2308141003676110E-02
              -6.3109099352830177E-03
               4.1865826090350926E-03
               5.1401649960026571E-03
              -2.0754637885092610E-02
              -1.0920921307246215E-02
               4.1770264892221683E-03
               1.7940022624259673E-03
               9.1723064589141947E-03
              -9.1538741710399749E-03
              -3.7956622548070132E-03
              -1.4042476514023270E-03
              -6.2101970724560271E-03
               5.5149545591154543E-03
               2.1787652308468287E-03
              -3.9851874568230146E-03
              -4.2511878786300732E-03
              -9.3708618023709527E-04
               4.8479037740143255E-03
               3.2419022097244582E-05
               8.6534344911478253E-03
              -8.1070747485070573E-03
              -3.3287165743921954E-04
              -5.5811500216745597E-03
              -2.2428407868687389E-03
              -2.9969474305502103E-03
              -1.4174281262037554E-03
               3.9215627675632386E-03
              -3.0234051445496499E-03
               1.5614853456033153E-03
               1.3462003368251124E-03
              -5.3510329991484779E-03
              -1.3088053061416150E-03
               6.0990784235226045E-04
              -6.7466474149559764E-03
              -8.9450124861917496E-04
               8.9842460267711794E-04
               5.3214945050309107E-03
               8.2397873369385102E-03
              -5.0121794312243152E-03
              -2.9286618750361190E-03
              -2.8990268791338498E-03
              -3.2992706293844313E-03
               3.8190664849531777E-03
              -7.5445002714556002E-03
              -1.7041324084607525E-03
               2.5084062945642050E-03
               1.4170347806787170E-02
               3.9048579961255322E-03
               3.8995182026463479E-03
               3.2488023798272494E-03
               3.7049923460256971E-03
              -9.3922992327604132E-04
              -5.3207407706180798E-03
              -9.2500800483146493E-04
               8.7731818476490982E-03
              -2.4207247297741768E-03
              -6.0756331140845938E-03
               5.5226247976119993E-03
              -6.7644408803683902E-03
               2.8614343683080338E-03
              -3.8267103661627648E-04
              -1.5295998894786693E-02
               4.9944890169583605E-03
               9.3891381400901981E-03
               1.5345309841191031E-02
              -7.8897167115806327E-03
              -3.6135526300560363E-03
         &END THERMOSTAT_ENERGY
         &RNG_INIT
Wiener process for Thermostat # 1        1 F T T  -1.3877964172148927E+00        3819968671.0        1923139303.0        2505174482.0        1129753110.0        1102497896.0        2318485114.0             12345.0             12345.0             12345.0             12345.0             12345.0             12345.0             12345.0             12345.0             12345.0             12345.0             12345.0             12345.0
Wiener process for Thermostat # 2        1 F T T   5.9690975612399577E-01        1863048650.0        1167059563.0        4156553466.0        2659491592.0        2500563110.0        2967422577.0        3692455944.0        1366884236.0        2968912127.0         335948734.0        4161675175.0         475798818.0        3692455944.0        1366884236.0        2968912127.0         335948734.0        4161675175.0         475798818.0
Wiener process for Thermostat # 3        1 F T T  -1.9577134425325560E-01        2029679022.0        1992813296.0        1475024831.0        3744841000.0        4231717232.0        1872789393.0        1015873554.0        1310354410.0        2249465273.0         994084013.0        2912484720.0        3876682925.0        1015873554.0        1310354410.0        2249465273.0         994084013.0        2912484720.0        3876682925.0
Wiener process for Thermostat # 4        1 F T T  -5.5423907268054418E-01         972191078.0        3239779000.0        2283144792.0        4029872124.0        2868550739.0         388907277.0        2338701263.0        1119171942.0        2570676563.0         317077452.0        3194180850.0         618832124.0        2338701263.0        1119171942.0        2570676563.0         317077452.0        3194180850.0         618832124.0
Wiener process for Thermostat # 5        1 F T T  -3.6874052824979625E-01         246061856.0        2033992607.0        4208640487.0        3425480013.0        1713937449.0        3033523858.0        1597262096.0        3906379055.0        3312112953.0        1016013135.0        4099474108.0         275305423.0        1597262096.0        3906379055.0        3312112953.0        1016013135.0        4099474108.0         275305423.0
Wiener process for Thermostat # 6        1 F T T   5.7875332706651861E-01        4268450248.0        1240555256.0        2123119467.0         299173953.0        2368881629.0        2698044585.0          97147054.0        3131372450.0         829345164.0        3691032523.0        3006063034.0        4259826321.0          97147054.0        3131372450.0         829345164.0        3691032523.0        3006063034.0        4259826321.0
Wiener process for Thermostat # 7        1 F T T  -1.8983145396195047E+00        4260312323.0         705196258.0         937296972.0        1373994383.0        3179698350.0        3757299263.0         796079799.0        2105258207.0         955365076.0        2923159030.0        4116632677.0        3067683584.0         796079799.0        2105258207.0         955365076.0        2923159030.0        4116632677.0        3067683584.0
Wiener process for Thermostat # 8        1 F T T  -3.3116685260855833E-01        2351531572.0        3477839446.0        1021048571.0        1975906828.0        1893564842.0         777663015.0        3281794178.0        2616230133.0        1457051261.0        2762791137.0        2480527362.0        2282316169.0        3281794178.0        2616230133.0        1457051261.0        2762791137.0        2480527362.0        2282316169.0
Wiener process for Thermostat # 9        1 F T T   1.4386427466100791E+00        3265425123.0        2999969280.0        3048908474.0        1047403656.0         134736569.0        4209884843.0        3777646647.0        1837464056.0        4204654757.0         664239048.0        4190510072.0        2959195122.0        3777646647.0        1837464056.0        4204654757.0         664239048.0        4190510072.0        2959195122.0
Wiener process for Thermostat # 10       1 F T T  -2.3947144259907721E-01        2825100143.0        2025717467.0        3827127036.0        1422979577.0        1026966836.0        1481957392.0        4215590817.0        3862461878.0        1087200967.0        1544910132.0         936383720.0        1611370123.0        4215590817.0        3862461878.0        1087200967.0        1544910132.0         936383720.0        1611370123.0
Wiener process for Thermostat # 11       1 F T T   2.8146058156813852E-01        3161233422.0        2404453347.0        1673723662.0         906337025.0          73303549.0        1016746719.0        1683636369.0         362165168.0         814316280.0         869382050.0         980203903.0        2062101717.0        1683636369.0         362165168.0         814316280.0         869382050.0         980203903.0        2062101717.0
Wiener process for Thermostat # 12       1 F T T  -6.6211933450441895E-01         208754144.0        1983222026.0        1378772639.0         460703296.0         651350573.0        3898252829.0         272317999.0         166758548.0         310112982.0         201045826.0        1680231254.0         118290799.0         272317999.0         166758548.0         310112982.0         201045826.0        1680231254.0         118290799.0
Wiener process for Thermostat # 13       1 F T T   2.2418582236869027E-02         545702192.0         878923556.0         464381839.0        1267067492.0        3004786620.0        2258194530.0        2245755202.0        1652682525.0        2865544364.0         721509566.0         209733568.0         592362218.0        2245755202.0        1652682525.0        2865544364.0         721509566.0         209733568.0         592362218.0