 # Version information for this restart file 
 # current date 2022-11-29 20:03:32.913
 # current working dir /scratch/work/courses/CHEM-GA-2671-2022fa/ns3539/comp-lab-class/Week12/Runs/Proton
 # Program compiled at                              Sat Dec 12 18:27:15 EST 2020
 # Program compiled on                                         cs001.nyu.cluster
 # Program compiled for                                                nyu-intel
 # Source code revision number                                       git:8c64c6e
 &GLOBAL
   PRINT_LEVEL  LOW
   PROJECT_NAME proton_aimd_1ns_every0.5fs
   RUN_TYPE  MD
   WALLTIME 21600
 &END GLOBAL
 &MOTION
   &GEO_OPT
     OPTIMIZER  BFGS
     MAX_ITER  100
     MAX_DR     3.0000000000000001E-03
     &BFGS
     &END BFGS
   &END GEO_OPT
   &MD
     ENSEMBLE  NVT
     STEPS  2000
     TIMESTEP     4.9999999999999994E-01
     STEP_START_VAL  1997
     TIME_START_VAL     9.9849999999998249E+02
     ECONS_START_VAL    -1.1027954174996337E+03
     TEMPERATURE     3.0000000000000000E+02
     &THERMOSTAT
       TYPE  GLE
       REGION  MASSIVE
       &GLE
         NDIM  5
         A_SCALE     1.0000000000000000E+00
         A_LIST     1.8595758612559999E+02    2.7263853498399998E-01    1.1526100454610001E+01   -3.6414578262600003E+01 \
             2.3173375816020001E+02
         A_LIST    -2.7809524712060002E-01    8.5951591808710006E-05    7.2189048017650004E-01   -1.9844539343859999E-01 \
             4.2409257583420001E-01
         A_LIST    -1.4825808131210000E+01   -7.2189048017650004E-01    1.3590902121280000E+00    5.1498896280349999E+00 \
            -9.9949268450990001E+00
         A_LIST    -1.0372189126880000E+01    1.9844539343859999E-01   -5.1498896280349999E+00    2.6661910891169999E+01 \
             1.1507715495310000E+01
         A_LIST     2.1801346360420001E+02   -4.2409257583420001E-01    9.9949268450990001E+00   -1.1507715495310000E+01 \
             3.0958394565589998E+02
         &THERMOSTAT_ENERGY
               2.5953717960426276E-03
              -5.1541337783825318E-05
              -5.8618536124257657E-03
               3.9942602833310976E-03
              -1.3120621523109876E-02
              -8.2514004255077240E-04
              -6.5851029119566259E-04
               3.0507390097434979E-03
               4.9816776742747414E-03
               2.6369869492225105E-03
               5.7277107609190114E-03
               1.4964760426238450E-04
              -1.4838348299766945E-02
              -2.5724400027304250E-04
               6.8723123694171759E-03
              -1.4134300309610838E-02
               9.5974845926637183E-03
              -1.8193435541244843E-03
               2.4126746779612619E-03
              -5.3468735409367227E-03
              -5.2164848462548704E-03
               1.0123725196154409E-02
              -1.7959112190836016E-02
              -8.1383684546071384E-03
               6.2934843405239192E-03
              -7.7714450210207443E-03
               7.3632919283053815E-03
               2.7949744079711395E-03
               4.1406499778097071E-03
               3.7126364953793648E-03
               3.0671589896680835E-03
              -4.8415069788471125E-03
               6.2626747054227603E-03
               2.0873587208301687E-03
              -1.6765520532055784E-03
               1.5596963212428360E-02
               9.8131028957038416E-04
              -1.8340337625232150E-03
              -2.2854857576077321E-03
              -4.1585444208854178E-05
               1.2900770120069498E-02
              -1.2061436171993367E-02
               7.0307803775222699E-03
               5.8021216627866436E-03
              -1.6845076878132866E-03
               2.8544041927616574E-03
              -8.5580173830385239E-03
               5.1605127827037420E-03
               1.3982494105236666E-03
               5.3262442197994945E-03
              -8.5872301549496017E-04
              -4.9444970801250385E-03
              -6.5304653822437437E-03
               9.4477446340936492E-04
              -7.7405364050097273E-03
               8.4113624687002127E-03
              -5.6261624460884375E-03
              -6.1169841515564521E-03
               8.6172340559225354E-03
               4.2255565102224980E-03
              -5.3083909111379043E-03
               8.3823534336253155E-04
               1.2333413238633354E-02
              -9.3533414414140887E-03
               1.8156002894575409E-03
               4.9258096297561081E-03
              -5.7267170539413532E-03
               1.0963917543620300E-02
               5.0279451516086300E-03
               8.1289878075328607E-03
              -1.1199131173703445E-02
               3.1148325771075103E-03
              -5.7584081153129628E-03
               1.2137460449392833E-03
              -4.7879557449692191E-03
              -1.1011556038159500E-02
               1.1369736652482448E-02
               1.0664935862784780E-02
               1.5159558302285072E-02
              -5.9409600218915904E-03
              -1.4394868973399552E-03
              -5.9596653928480929E-03
               4.3649288641335595E-03
              -7.3718947260313400E-04
               4.8491954403297446E-03
               5.4790761533555143E-03
               2.3862697265236119E-04
              -1.4534369013739888E-02
               1.3423938628777519E-02
              -1.1198006421938413E-02
               1.6416747774484382E-03
              -4.2093476927998145E-03
               1.9601513530172936E-03
              -5.4265989105456661E-03
              -6.2910791967951936E-03
               9.5526318427194487E-03
               1.5497563026718284E-03
               4.9107491400971282E-03
               3.3734339542276772E-03
               2.0771641985141069E-03
               5.7433356723679638E-03
               2.5836417478537449E-03
              -1.2259280529717089E-02
               4.1871087416114105E-03
               9.0018054598889202E-03
               1.6033183147301566E-02
               4.4297582963394840E-03
              -5.7427667632497775E-03
               9.7422984296839238E-03
              -2.0102904142329579E-03
               3.6004989250147060E-03
               5.2908613014717224E-04
               6.5629833146868301E-03
               6.3999077164191677E-03
              -3.2307646978962409E-03
               1.5430273250579426E-03
              -9.3059897333352473E-03
              -2.7638595821860633E-04
               3.3606099259629613E-03
               2.7464357495943820E-03
               7.8738027053984287E-05
              -1.2103598512604274E-03
               3.7333199537486284E-03
               8.6289783691022512E-03
              -6.7081111933339002E-03
              -9.3175907162406472E-03
               9.9788578924718627E-03
              -5.6015480745660673E-03
               4.4693018942866362E-04
               6.1837416774689034E-03
              -7.9855582216502834E-03
               5.9893682444213236E-03
              -3.0642760799273819E-03
              -2.7974051172589601E-03
              -4.5294379994612158E-04
               5.2287718918482360E-03
              -5.1461683381629937E-03
              -8.4999727130105063E-03
               3.2496314776404114E-03
              -8.5115736127072900E-04
               1.3085808811061856E-03
               5.7804120115941514E-03
               9.0192874900272141E-03
              -5.0589660237744015E-03
              -6.6489621075296107E-03
              -1.0726126836303546E-02
               1.0768183131073857E-02
              -5.6547581851693444E-03
              -7.1519953178001963E-03
               1.2306991619217651E-02
              -1.3042893806302842E-02
               1.5579127188618267E-02
              -1.1115066995591776E-02
               2.1578830974668655E-03
               2.4521724211331490E-03
               1.5216049153023352E-03
              -2.2034483927245102E-03
               1.4975275972182078E-04
              -3.3108504003608701E-03
               1.4220660214198427E-03
              -8.4892062358634778E-04
              -4.2582268501829539E-03
               1.4244049505396715E-03
               6.6839954718632768E-04
               1.3785674430211066E-02
               1.5861429563948377E-02
               1.4200821816934539E-03
              -3.0179076513349161E-02
              -3.2684445790149338E-03
              -9.7951167604692750E-05
              -7.0201708664447283E-04
               2.9681007671823606E-03
              -6.7504750983102117E-05
               7.0585973666617988E-03
               5.2183688276309734E-03
               1.3977655859847718E-02
              -2.7206834371552423E-02
               1.8199141192184241E-03
              -4.0183727799696549E-03
               9.2870361468244088E-03
               3.0608249241544073E-03
              -5.3018195809227215E-03
               2.0308345035462195E-03
              -1.7431206688885925E-02
               1.6240729438761602E-02
              -1.5990331643003441E-03
              -9.8871015893487336E-03
              -1.3916026743192311E-03
              -2.1412690546273941E-03
               1.2811670887726196E-03
               6.4444422991059300E-03
              -1.3744134287501037E-04
              -6.9647451111454041E-03
               1.2383686112157871E-02
               2.3339249317536784E-03
              -1.3417446531394355E-03
              -7.8307651413785911E-03
               5.9138521488385342E-03
              -1.5080960614269878E-03
              -2.1662762052967193E-03
              -5.4969044018481376E-03
              -6.1898586602200699E-04
               7.5778864758764847E-03
               1.0957920268787148E-02
              -7.4383599724685504E-03
               8.3678000519586682E-03
              -9.9732027930856289E-03
              -4.1895418698581114E-04
               3.5535518874547658E-03
               2.1961826351504388E-03
               3.1246974785638423E-03
              -9.3759140691259003E-03
               1.0433479177947009E-02
              -2.2582559806975868E-03
               7.9496030598233888E-03
               3.1017763594135034E-03
              -8.9776655002178300E-03
               7.7080038026258683E-03
              -1.1237351450508722E-04
              -9.2227338695382265E-03
               1.9301834562995242E-03
              -5.2793507511261460E-03
              -4.1663724233154174E-04
              -3.0542379125237640E-03
               4.8899100486829768E-03
               4.8862095300877132E-03
               5.1375730964198089E-04
               1.8249288574911434E-03
              -3.6418539175663386E-04
              -7.9734426232367876E-03
               4.6779195334789310E-04
              -5.7228233208978024E-03
               1.3027582555526357E-02
              -4.0576622389086282E-03
               2.3381418492462460E-03
               1.7005259726746739E-03
              -9.1632051986051204E-04
              -1.8310736855284870E-03
              -7.2664815362563932E-05
               3.6673867308064218E-03
               3.9814046436610646E-03
              -5.0156467190738772E-03
              -2.6453126287966713E-03
              -9.3936084821704931E-04
               5.4235832631403628E-03
               1.2821864775873410E-03
              -4.7925595005472756E-03
               6.8105319201043216E-03
               1.4552911725244117E-03
              -5.1280373577702251E-03
               8.3451397016920618E-03
              -1.0523197328488169E-02
              -1.2622595608955931E-02
              -2.4629423889415483E-03
               4.7213304697239483E-03
               3.4455733938703958E-04
               1.6587181879245742E-02
              -1.2199039645188573E-02
               6.6095954752179694E-03
              -1.7866347480274481E-02
               1.1198273464768512E-02
               6.2853097189335431E-03
               2.2084393632075143E-04
              -3.5480750096776236E-03
              -1.0702220703779498E-03
              -1.1493353435187264E-02
               1.0308588879074610E-02
               3.4804635742412176E-03
               2.3694157072200127E-03
               4.2397027562245315E-03
               2.7575634481924988E-02
               8.1186160296026055E-03
               1.5629688624408253E-02
               3.9802276256931234E-03
               4.7930345928361368E-03
              -3.2995629335242404E-03
              -5.7122834486953754E-03
               1.3722235709362112E-02
              -1.0228054448294480E-02
               8.8171027093629419E-03
              -8.5836211683468083E-03
              -2.9686598068735092E-03
              -2.1299374732079994E-03
               3.0159179443659651E-03
               4.9381619893260282E-03
              -6.6969960776535964E-03
               6.2303464114011860E-03
               7.7746820543043689E-03
              -5.3617796230975186E-03
               6.1428355496564845E-03
               2.0757685845391150E-03
               4.7381079525090413E-03
              -2.9343235862844008E-03
              -2.4114729943481589E-03
               8.2526131323226865E-03
              -9.6165488105661831E-05
              -1.9407952005173940E-02
               5.9183736958869533E-03
               1.4035677190894737E-02
              -5.2382772493426285E-03
              -2.0026881906676690E-03
               1.0057477310958244E-02
               5.0575999951285649E-03
               3.0336052577500449E-02
              -1.0021394642693065E-02
              -1.3237049790662753E-02
              -5.6576671343984584E-03
               7.2074593848354084E-04
               6.1034799576337173E-03
               5.9421035799789431E-03
              -3.0869468965928439E-03
              -5.7248669573324628E-03
              -5.0605519076298289E-03
              -1.9058940768743055E-03
               5.5425325560614393E-03
               8.6733955853316282E-04
              -8.3125924815930716E-03
              -6.0056429974990402E-03
              -1.6726519124385282E-02
              -1.1005556088661385E-02
              -1.0617218662792489E-03
               7.8914906461289257E-04
               7.8035743669972691E-03
               6.6513253552581307E-04
              -2.6293018146984265E-03
               2.3285913000445121E-02
               6.1768725263179570E-03
               8.3928086603861948E-04
               7.0371562396041420E-04
               4.6166263595878044E-03
              -3.8794816406911739E-03
               5.2476338106300421E-03
               8.2414195668926160E-03
              -8.0854733395141817E-03
               1.3776995009422521E-03
              -1.1983675331152894E-03
              -4.2584575314680534E-04
              -2.9439765681673795E-03
               4.7806213468312101E-03
               4.3347799793608194E-03
              -5.9185770221942139E-03
               3.2353710070084844E-03
               1.5272864581375202E-02
              -7.4931674707593506E-04
              -1.7928897911434951E-03
              -1.4921996867060263E-03
               9.5949252044438462E-03
              -1.1386291854157928E-02
               1.0066440666513547E-02
               1.2176789269849298E-03
              -7.3706532577721660E-03
              -2.9432249384312584E-03
              -8.1557227037631751E-03
               8.7930797192299227E-03
               2.2740748587305164E-03
              -4.3438546609627935E-03
               4.4688331369071698E-03
              -9.2194315084929476E-03
              -1.2573819150853625E-02
               6.7315185847094394E-03
               2.4084461000293783E-03
              -3.1897607755353285E-03
               1.6919601085297338E-02
              -5.9806117122496909E-03
              -2.7227035012726635E-03
              -1.3225380834298286E-03
              -3.6278105510317100E-04
               6.0604716583907096E-03
              -1.1651015942938291E-02
               4.0713934407216826E-03
               1.1333905699593186E-03
               9.7734423105643193E-03
               1.5932451683401240E-04
              -2.9124575039162857E-03
               2.8428575002012978E-03
               9.1467598532180038E-04
              -7.5996539319083461E-03
              -1.8960592769161629E-02
               3.7318488939318177E-03
               7.6247426035542824E-03
               3.7705046931926101E-03
               3.5054772585927031E-03
              -2.6964902512618526E-03
              -2.5309782996636859E-03
              -9.1236091661760412E-03
              -3.1260028059774581E-03
              -1.6590241644875395E-04
               8.0144665749988314E-04
               1.5450552394438988E-03
               1.1667784043217352E-03
              -7.4739162296718516E-03
               7.8462993592155958E-03
               2.4094059767755579E-03
              -5.7157612664324765E-03
               1.2168921695628108E-02
              -2.3702107362156429E-03
              -2.2546901812855475E-03
              -6.5425322666735281E-03
               3.7899341975396361E-03
              -1.6441058460368767E-03
               3.6091450758182816E-03
               1.1985785001982965E-03
              -1.0291308552585541E-03
              -9.2823053043939747E-03
               1.5847300746457277E-03
              -5.3582702581422177E-03
               3.9690997174706101E-03
              -2.2139763882019430E-04
               5.9354455198992392E-04
              -1.9074527048549583E-03
               3.5733255992499106E-04
               1.9332959497122440E-03
              -2.3188191729116596E-04
               7.7961653972206894E-03
              -4.6046486659329852E-03
               7.4616611634522106E-03
              -3.7262121888727282E-03
              -3.0944136337126844E-04
              -1.3215814570948807E-03
              -3.1793745405886949E-03
               6.4969517759132416E-03
               6.6782173306852224E-03
              -4.7434646353915503E-03
              -8.1846359064763818E-04
               1.0794291708822953E-02
              -6.5269215916801465E-03
               5.8107943149587156E-03
              -4.8510770403991325E-03
              -1.1657396675460124E-03
               1.9996223678261870E-03
              -4.0161609231759475E-03
              -8.0580938884031381E-03
              -2.2549820519899250E-02
               1.5946613924288363E-02
               1.3729988330369463E-02
               9.8724158337005086E-05
              -4.0790697852119721E-03
              -2.8991512700433399E-05
              -1.1278964064730914E-02
              -4.2409724085107174E-03
               1.7985818842567128E-02
              -6.4820380953485596E-03
              -7.4514177654193504E-03
               1.7643295949811941E-02
               3.3896254937576639E-04
               7.3530468465058483E-03
               1.1301770701530828E-03
               1.0894431071523625E-02
               7.6697634512136624E-03
              -2.0833954318926120E-03
              -2.1682526019254616E-03
              -1.0747894604979947E-02
               3.0678741496880002E-03
              -1.4423242419309365E-03
              -1.5462222727587653E-03
               2.1835088475648170E-04
              -8.2464736067831331E-03
              -2.2991325022553247E-02
               4.3352427693470075E-03
              -2.1531852306444178E-03
               1.6369232570310449E-02
               1.1591026083351733E-02
              -4.7171933766811981E-03
               7.0122478235833978E-03
              -1.7953646234458286E-03
              -3.2900894290381175E-03
              -8.6089405407622586E-03
               3.5094718630364003E-03
               1.2784223136377632E-02
              -7.0603683500996507E-03
              -6.8336166247403417E-03
              -4.3672135711572517E-04
               3.5133697050138586E-03
               2.3368867544438288E-03
              -3.4753895959695592E-04
               2.1829398917704853E-02
              -5.6912525530254986E-03
               2.9893342755935304E-03
              -6.2940141801495269E-03
              -1.2745033547636116E-02
               2.0424702935119125E-03
               1.9507188764121379E-04
               1.0908720253334329E-02
               5.9059745081370026E-03
              -6.1219606911002864E-03
              -2.4579051963707819E-03
              -9.4813928607011232E-03
              -1.8813942830470253E-03
               1.2337650169929815E-02
               2.0763902492176873E-03
               7.9851083420896616E-03
               6.6017546076288782E-03
               8.5190683048013121E-03
              -4.0269494100369438E-03
              -7.1343663193500677E-03
              -4.7553012780957018E-03
               4.7012733259233089E-03
              -5.0967734327069837E-04
               1.6135879710563014E-03
               5.7052724640230257E-03
               2.4966864922063698E-04
               1.0131052328334415E-02
              -2.0640275166796278E-02
               1.4914812275681616E-02
               7.9002295697010744E-03
              -1.0431557630489072E-02
              -6.2554514943202284E-03
               2.5414266604590710E-03
               4.1452118341909787E-03
              -1.5438768690370760E-03
              -3.1976378051478786E-03
               1.1687415870665224E-02
              -6.1705544424082289E-03
               4.1037530997723119E-03
               5.2255591546393511E-03
              -2.0612939821126969E-02
              -1.0723980818791456E-02
               4.2393456396659862E-03
               1.8039929362969329E-03
               9.2428919895145758E-03
              -9.2096911848684286E-03
              -3.8597613621881698E-03
              -1.4565629013083366E-03
              -6.2066093023358925E-03
               5.9180502214802267E-03
               2.2780067982684326E-03
              -5.2272651927586476E-03
              -3.7322528864901631E-03
              -1.4474732836608903E-03
               4.3837836018868559E-03
              -5.1016123037370196E-05
               8.7685961770725979E-03
              -8.4029718630419109E-03
              -3.8588057377489046E-04
              -5.5876175175803081E-03
              -2.1652346562308776E-03
              -2.9614747208097317E-03
              -1.1749249548186709E-03
               4.1511027118533187E-03
              -7.2537861075483738E-04
               1.4852550134139867E-03
               1.2381569393697903E-03
              -5.3630935404091083E-03
              -1.2309832647733280E-03
               5.8242485382804289E-04
              -6.9116879064686073E-03
              -2.7672714108358448E-04
               1.2811022418739760E-03
               5.4181825779387426E-03
               8.0663897946313349E-03
              -7.2782512510672984E-03
              -2.3527201625205270E-03
              -2.6807183821923259E-03
              -3.3320251584770676E-03
               3.7159140547811235E-03
              -7.6190694353454385E-03
              -1.6143438610617226E-03
               1.9041054952890746E-03
               1.4101596237191569E-02
               4.5089868785607706E-03
               3.6048461516213809E-03
               2.9835099897188794E-03
               3.8386622687910177E-03
              -1.1885181415719950E-03
              -4.9841401598404635E-03
              -1.2031702611642796E-03
               8.9065111813521093E-03
              -2.7290584758791108E-03
              -6.0418661043139185E-03
               6.4646587831019998E-03
              -6.6163213519119706E-03
               3.1926086285146166E-03
              -1.5153278727545847E-03
              -1.5213825806612707E-02
               4.8628316376557925E-03
               8.7763133631555655E-03
               1.5360806761237302E-02
              -7.6384992609858501E-03
              -3.4859141859524142E-03
         &END THERMOSTAT_ENERGY
         &RNG_INIT
Wiener process for Thermostat # 1        1 F T T   3.7280401166127353E-01        2396824340.0        1285798124.0        1970812289.0        4262378425.0        2500496477.0        3105761546.0             12345.0             12345.0             12345.0             12345.0             12345.0             12345.0             12345.0             12345.0             12345.0             12345.0             12345.0             12345.0
Wiener process for Thermostat # 2        1 F T T  -2.8031459711754392E-01        1517340215.0         764337745.0        1777988352.0        1272471177.0        3093987526.0        2495380513.0        3692455944.0        1366884236.0        2968912127.0         335948734.0        4161675175.0         475798818.0        3692455944.0        1366884236.0        2968912127.0         335948734.0        4161675175.0         475798818.0
Wiener process for Thermostat # 3        1 F T T   7.0414863813957229E-01        1874984675.0        3540139467.0        3102430019.0        1608426380.0         643336117.0        1230365417.0        1015873554.0        1310354410.0        2249465273.0         994084013.0        2912484720.0        3876682925.0        1015873554.0        1310354410.0        2249465273.0         994084013.0        2912484720.0        3876682925.0
Wiener process for Thermostat # 4        1 F T T   2.2606224243119818E-01        3416187057.0        1637601412.0         393440280.0        2948182120.0        3407482107.0        2343296956.0        2338701263.0        1119171942.0        2570676563.0         317077452.0        3194180850.0         618832124.0        2338701263.0        1119171942.0        2570676563.0         317077452.0        3194180850.0         618832124.0
Wiener process for Thermostat # 5        1 F T T  -1.0267294306732384E+00         315072143.0        4137263975.0        4196656129.0        1282237791.0        3639735469.0        1937530485.0        1597262096.0        3906379055.0        3312112953.0        1016013135.0        4099474108.0         275305423.0        1597262096.0        3906379055.0        3312112953.0        1016013135.0        4099474108.0         275305423.0
Wiener process for Thermostat # 6        1 F T T   9.2624835653208748E-01        3222219212.0        3105331301.0        2094058484.0        2511776071.0        3719186732.0        3505559269.0          97147054.0        3131372450.0         829345164.0        3691032523.0        3006063034.0        4259826321.0          97147054.0        3131372450.0         829345164.0        3691032523.0        3006063034.0        4259826321.0
Wiener process for Thermostat # 7        1 F T T  -4.6721006089689310E-01        2921304001.0        3534845789.0         764942181.0        2980414860.0        2807768180.0         274774080.0         796079799.0        2105258207.0         955365076.0        2923159030.0        4116632677.0        3067683584.0         796079799.0        2105258207.0         955365076.0        2923159030.0        4116632677.0        3067683584.0
Wiener process for Thermostat # 8        1 F T T   4.8809173354813140E-01        3327178806.0        3682317356.0        2663069382.0         319044460.0        3975670735.0         562702070.0        3281794178.0        2616230133.0        1457051261.0        2762791137.0        2480527362.0        2282316169.0        3281794178.0        2616230133.0        1457051261.0        2762791137.0        2480527362.0        2282316169.0
Wiener process for Thermostat # 9        1 F T T  -8.1805399140306756E-01         433221438.0         349071730.0        2033385903.0        2639944804.0        3988392127.0        3801627598.0        3777646647.0        1837464056.0        4204654757.0         664239048.0        4190510072.0        2959195122.0        3777646647.0        1837464056.0        4204654757.0         664239048.0        4190510072.0        2959195122.0
Wiener process for Thermostat # 10       1 F T T  -2.7062828385550008E-01        2290601073.0        1666814614.0        3289919364.0        2930088785.0        1500929831.0        1860303943.0        4215590817.0        3862461878.0        1087200967.0        1544910132.0         936383720.0        1611370123.0        4215590817.0        3862461878.0        1087200967.0        1544910132.0         936383720.0        1611370123.0
Wiener process for Thermostat # 11       1 F T T   6.8652417552969780E-01        2151060734.0         580174056.0        1748210725.0         399674445.0        1879492130.0        2741776977.0        1683636369.0         362165168.0         814316280.0         869382050.0         980203903.0        2062101717.0        1683636369.0         362165168.0         814316280.0         869382050.0         980203903.0        2062101717.0
Wiener process for Thermostat # 12       1 F T T   1.2985463821691814E+00        3478492904.0        1830493925.0          17364685.0        2058676739.0        2676153401.0        4087350495.0         272317999.0         166758548.0         310112982.0         201045826.0        1680231254.0         118290799.0         272317999.0         166758548.0         310112982.0         201045826.0        1680231254.0         118290799.0
Wiener process for Thermostat # 13       1 F T T   2.0061703114922356E+00        2097018817.0        1300727704.0         367347443.0         582130443.0        2824054692.0        3111690587.0        2245755202.0        1652682525.0        2865544364.0         721509566.0         209733568.0         592362218.0        2245755202.0        1652682525.0        2865544364.0         721509566.0         209733568.0         592362218.0