 # Version information for this restart file 
 # current date 2022-11-29 20:03:40.193
 # current working dir /scratch/work/courses/CHEM-GA-2671-2022fa/ns3539/comp-lab-class/Week12/Runs/Proton
 # Program compiled at                              Sat Dec 12 18:27:15 EST 2020
 # Program compiled on                                         cs001.nyu.cluster
 # Program compiled for                                                nyu-intel
 # Source code revision number                                       git:8c64c6e
 &GLOBAL
   PRINT_LEVEL  LOW
   PROJECT_NAME proton_aimd_1ns_every0.5fs
   RUN_TYPE  MD
   WALLTIME 21600
 &END GLOBAL
 &MOTION
   &GEO_OPT
     OPTIMIZER  BFGS
     MAX_ITER  100
     MAX_DR     3.0000000000000001E-03
     &BFGS
     &END BFGS
   &END GEO_OPT
   &MD
     ENSEMBLE  NVT
     STEPS  2000
     TIMESTEP     4.9999999999999994E-01
     STEP_START_VAL  1998
     TIME_START_VAL     9.9899999999998238E+02
     ECONS_START_VAL    -1.1027954174996337E+03
     TEMPERATURE     3.0000000000000000E+02
     &THERMOSTAT
       TYPE  GLE
       REGION  MASSIVE
       &GLE
         NDIM  5
         A_SCALE     1.0000000000000000E+00
         A_LIST     1.8595758612559999E+02    2.7263853498399998E-01    1.1526100454610001E+01   -3.6414578262600003E+01 \
             2.3173375816020001E+02
         A_LIST    -2.7809524712060002E-01    8.5951591808710006E-05    7.2189048017650004E-01   -1.9844539343859999E-01 \
             4.2409257583420001E-01
         A_LIST    -1.4825808131210000E+01   -7.2189048017650004E-01    1.3590902121280000E+00    5.1498896280349999E+00 \
            -9.9949268450990001E+00
         A_LIST    -1.0372189126880000E+01    1.9844539343859999E-01   -5.1498896280349999E+00    2.6661910891169999E+01 \
             1.1507715495310000E+01
         A_LIST     2.1801346360420001E+02   -4.2409257583420001E-01    9.9949268450990001E+00   -1.1507715495310000E+01 \
             3.0958394565589998E+02
         &THERMOSTAT_ENERGY
               2.7960090419268178E-03
              -2.4668098859961557E-04
              -5.8214554633850089E-03
               4.1717955059823323E-03
              -1.3154413714931134E-02
              -8.3656721329860716E-04
              -4.6991099055665214E-04
               3.2671674634049625E-03
               4.5891939196292591E-03
               3.2135307456633393E-03
               5.7393213603306155E-03
               1.0686301283581261E-04
              -1.5683616859966679E-02
              -4.4737328762686562E-04
               6.8737023834331001E-03
              -1.3824300624266381E-02
               9.2565635055106097E-03
              -9.3358608321423664E-04
               2.3397376457816341E-03
              -5.4823864217015059E-03
              -5.1655636419411120E-03
               1.0094299892984682E-02
              -1.8644086069037762E-02
              -7.8759562252976173E-03
               6.4792836795144557E-03
              -7.4615630025351614E-03
               7.7706501034551676E-03
               2.6841928983585921E-03
               4.2212481680952655E-03
               3.8465380704920194E-03
               3.0069132005813293E-03
              -5.1119361627963034E-03
               6.4388823480689512E-03
               2.0262383315503177E-03
              -1.5432682100747286E-03
               1.5556124579058946E-02
               1.0191531447830480E-03
              -1.8252380955787928E-03
              -2.1833933508572157E-03
               4.9806352253344488E-04
               1.2905526209409247E-02
              -1.1996078393336995E-02
               6.6036120375813053E-03
               6.3128010575416249E-03
              -1.7234947600435460E-03
               2.2306977930597023E-03
              -8.8127179186527054E-03
               4.7121286982642775E-03
               1.5658731064266600E-03
               6.3768754092122550E-03
              -8.1523219920077300E-04
              -5.2798809530442440E-03
              -6.6562649525525510E-03
               9.7731298126061197E-04
              -7.9826612505120489E-03
               7.9586838577424598E-03
              -5.8732093857492484E-03
              -6.4251356596700558E-03
               9.4483819250044208E-03
               4.2400937513909290E-03
              -5.5402833573632753E-03
               1.1604096720981851E-03
               1.2986309317030731E-02
              -9.5209931961359115E-03
               2.0780243046854959E-03
               4.9745164956870834E-03
              -5.6906789623974953E-03
               1.1004881053435958E-02
               5.1383832735055739E-03
               8.6934178771462325E-03
              -1.1251592076680510E-02
               3.1219189359637514E-03
              -5.8800000369996419E-03
               1.4540238181692637E-03
              -4.9115190663913365E-03
              -1.0984585454847314E-02
               1.1744502508277282E-02
               1.0793237469431123E-02
               1.5505626219702813E-02
              -5.7812035273946231E-03
              -1.4824763448639008E-03
              -6.2754870643902403E-03
               4.2625091672030425E-03
              -7.3910262315854424E-04
               4.7838824511176724E-03
               5.2362518650384392E-03
               6.8025145096214630E-04
              -1.4176327690935270E-02
               1.3632505865665350E-02
              -1.0999510413277888E-02
               1.8258879576421578E-03
              -4.2473651594940555E-03
               1.9576970826845953E-03
              -5.1862624732677172E-03
              -6.5004094364960506E-03
               8.9683890175273479E-03
               1.8306794054761609E-03
               4.4325430749008049E-03
               3.1291750585626327E-03
               2.0540435543800720E-03
               5.5633582972409766E-03
               2.0597947657961190E-03
              -1.1904811049944721E-02
               4.1123702376159180E-03
               8.7211796076127335E-03
               1.6014047665492994E-02
               4.8593870571121333E-03
              -6.3205359362628472E-03
               9.7536865159326865E-03
              -1.9831265557375736E-03
               3.7299956116749579E-03
              -1.2030849564144375E-04
               6.9729133690174059E-03
               6.2493235667660631E-03
              -3.4143254250562226E-03
               1.5348754920603252E-03
              -9.2597112460139162E-03
              -1.3900575496426972E-04
               3.3468655151197590E-03
               2.3657214153610063E-03
               7.2258500700417749E-04
              -1.7875965343431203E-03
               3.8426052932621461E-03
               8.9551257695746657E-03
              -6.7049294643934622E-03
              -9.6074506953029264E-03
               9.8445660782459192E-03
              -5.7538742918108281E-03
               8.4561359334081577E-04
               6.3670826804072969E-03
              -8.2787996915718240E-03
               5.8336205642222352E-03
              -2.8981622908689848E-03
              -2.6701059295177027E-03
              -5.0608764295335756E-04
               6.4236931070834257E-03
              -4.7270934893258159E-03
              -7.6734799776447000E-03
               3.2695515565795718E-03
              -8.4541451312621562E-04
               1.2267423314035392E-03
               5.6622882668301072E-03
               8.1576653794128793E-03
              -5.0996624755195053E-03
              -6.6411514431852720E-03
              -1.0701536063945478E-02
               1.1163727856951659E-02
              -5.6043156163854222E-03
              -7.1376804370023991E-03
               1.2333999803559471E-02
              -1.3214205717858281E-02
               1.5663890214503470E-02
              -1.0917710862335606E-02
               2.8321094202628069E-03
               2.3503578705788126E-03
               1.5826224213256095E-03
              -1.8954863971461535E-03
               5.5121788028567097E-04
              -3.3319219976383008E-03
               1.2491331746159596E-03
              -9.9642345145289544E-04
              -4.3680982161112400E-03
               1.4954903212761402E-03
               1.1446423341439616E-03
               1.3166063982588634E-02
               1.6145862745303986E-02
               2.0178530595488424E-03
              -3.0236065511124614E-02
              -2.7956259310450236E-03
              -1.0763097799827218E-04
              -5.3063606115743905E-04
               2.9936271022058349E-03
              -2.0112112747347385E-04
               7.2030502286598149E-03
               5.5898923664429367E-03
               1.3979719229662709E-02
              -2.7028181075602370E-02
               1.4196821142092207E-03
              -4.0493245747920984E-03
               8.8528748990407691E-03
               3.3105914563353322E-03
              -5.3504615767163135E-03
               1.8164991839137461E-03
              -1.6887440676201890E-02
               1.6197872329129042E-02
              -1.1412256466539284E-03
              -9.8885768677578045E-03
              -2.2763935859112850E-03
              -1.9957548581472158E-03
               1.5371361241064366E-03
               7.2830555314407353E-03
              -8.1042817504033788E-04
              -6.5317409091922140E-03
               1.2307651044660823E-02
               2.2631588162471991E-03
              -1.2332422714207590E-03
              -7.6329138799133122E-03
               4.3401068465325930E-03
              -1.5269016164774895E-03
              -1.9404373151837085E-03
              -5.6509002419967286E-03
              -6.8759144672278592E-04
               7.6943614874737075E-03
               1.0883261829638065E-02
              -6.5107531107573887E-03
               7.5400614463591916E-03
              -9.7651129928873759E-03
              -7.6445689450510210E-04
               2.9384713151625230E-03
               2.1887270043889745E-03
               3.0695953432307950E-03
              -9.2737288617797033E-03
               1.0509701764448770E-02
              -2.2554707071691924E-03
               7.8694167159508374E-03
               3.0405754154034081E-03
              -8.7620000249205542E-03
               8.0418927942763445E-03
               4.1894028586410845E-04
              -9.2159579659677453E-03
               1.0314758680922060E-03
              -5.5844790911933990E-03
               5.3923381423777136E-04
              -2.8721518068880333E-03
               4.8376250602573268E-03
               4.7517256679231986E-03
               7.0645612757042726E-04
               2.0751311184538136E-03
              -4.6742707133949461E-04
              -8.0033731518369886E-03
               4.9692541991199499E-04
              -4.7941711491380377E-03
               1.3328350704421621E-02
              -3.9894849451793633E-03
               2.4399114364373484E-03
               1.4167281847438612E-03
              -5.9148320593175544E-04
              -1.7442387891575314E-03
               7.0993999457020688E-05
               3.6624264906605867E-03
               4.2166347585707864E-03
              -4.9451048517737059E-03
              -2.7723638651163804E-03
              -6.7537841208994195E-04
               6.0146353644791603E-03
               1.9217669371494979E-03
              -5.5132557135242014E-03
               7.1144135068421316E-03
               1.2879001658207601E-03
              -4.9550970357937233E-03
               8.3516128654084875E-03
              -1.0686428352909385E-02
              -1.3343921546429669E-02
              -2.7999851877985251E-03
               5.1184509118734622E-03
               3.2702608110179472E-04
               1.6551348158277843E-02
              -1.1939017411516447E-02
               6.4791693911578664E-03
              -1.7778924366184400E-02
               1.1426119890803027E-02
               6.2186000625545019E-03
               5.7705316510581564E-04
              -3.4673752010690741E-03
              -1.4742515165477880E-03
              -1.1051656306550792E-02
               1.0299573095072864E-02
               2.5557901552766184E-03
               2.4911969240838895E-03
               4.2400282332668952E-03
               2.7245585813959677E-02
               8.2465211740765480E-03
               1.6249106319441091E-02
               4.6283829010110647E-03
               4.8161686251237974E-03
              -3.3349260740032035E-03
              -5.6116080988815398E-03
               1.3787193166901657E-02
              -1.0262875378785103E-02
               8.7256844001978705E-03
              -8.7176729640759763E-03
              -2.3992993878808053E-03
              -2.0807670599687390E-03
               2.8467166679877432E-03
               4.8246731277864852E-03
              -6.6385748862309892E-03
               6.1199121512693589E-03
               7.8971055021225152E-03
              -5.2458014278700974E-03
               6.1429419794872750E-03
               4.2102661475611966E-03
               4.2378745654316451E-03
              -2.5475229502312448E-03
              -2.1912705811436978E-03
               8.2411022024906806E-03
               6.7411927917762073E-05
              -1.9971537709205494E-02
               6.1270043355776673E-03
               1.4228328375505540E-02
              -5.2400260259172753E-03
              -1.9371595805396267E-03
               9.9581801574713056E-03
               5.0232206343340481E-03
               3.0356227518472723E-02
              -1.0019658322946686E-02
              -1.3113618697022236E-02
              -4.7551342949049055E-03
               1.2425033013186348E-03
               6.2576844539439002E-03
               5.2378277649956376E-03
              -3.1219850021852826E-03
              -5.6695369326173620E-03
              -4.8165068670854832E-03
              -1.9228398231459075E-03
               5.3714781021187933E-03
               8.3251279778446684E-04
              -7.8080992940840806E-03
              -6.1356974729444066E-03
              -1.6764307932898619E-02
              -1.1032972900750641E-02
              -9.6217665659630047E-04
               6.0246925819259622E-04
               7.7493650578551515E-03
               6.2928718836846955E-04
              -2.2566724427761108E-03
               2.2418817198834401E-02
               5.7390813816831053E-03
               1.4741744667581128E-03
               6.5784378809181378E-04
               4.5186413902737503E-03
              -2.9114149813731839E-03
               5.3197201267255302E-03
               8.2226152481483673E-03
              -9.3195749274370913E-03
               1.3569746395462839E-03
              -1.2709034665814997E-03
              -4.9515175118131831E-04
              -2.4492845791704559E-03
               4.8098799293775077E-03
               4.5935604212799189E-03
              -5.9373796019928241E-03
               2.2573554247068322E-03
               1.5265658363467433E-02
              -6.3039193911901791E-04
              -1.5460299872424844E-03
              -7.7542032490513684E-04
               9.7256860364782986E-03
              -1.1385970425968920E-02
               1.0107497784697333E-02
               9.4354141091532520E-04
              -7.4350771328916317E-03
              -3.1885233914116309E-03
              -7.9569784396626916E-03
               9.2477228854437876E-03
               2.2755487141283364E-03
              -4.2617049890575943E-03
               4.5002984812772600E-03
              -9.1743387221362854E-03
              -1.2535884598618556E-02
               7.1457108746476039E-03
               2.4501172271163760E-03
              -2.9455056393508307E-03
               1.6773380125195424E-02
              -5.5218199180047788E-03
              -2.6775658451439056E-03
              -1.5457444528386363E-03
              -4.2812865008272957E-04
               5.9231631080891760E-03
              -1.1957442509141381E-02
               4.0085243919866778E-03
               1.2179162164080146E-03
               9.7510851237077659E-03
               6.2240590207729896E-04
              -3.7087674619638556E-03
               3.0670549229619231E-03
               1.9177429298135832E-03
              -7.7714490087198223E-03
              -1.8942638460353212E-02
               3.8591807068969106E-03
               7.5557388498140561E-03
               3.7715353226169556E-03
               3.3937684536368448E-03
              -3.8305075863979956E-03
              -2.5479204428707721E-03
              -9.1533613212694317E-03
              -3.2819552697145970E-03
              -2.2406720651238404E-04
               8.6333501316878682E-04
               1.7239005070690083E-03
               1.1611779319793652E-03
              -7.5730659018022660E-03
               8.2062849376696809E-03
               2.4502920669158519E-03
              -5.7047266466562791E-03
               1.2243610674503497E-02
              -2.4333213674932702E-03
              -2.1373010666509117E-03
              -6.5026396291978216E-03
               4.4268598817760784E-03
              -1.5975489933489635E-03
               3.8247771498520280E-03
               1.3525865481314120E-03
              -1.0456010343389388E-03
              -9.2918138119232104E-03
               1.7048126968646714E-03
              -5.3443380522311271E-03
               3.9166682390357590E-03
              -6.9364555073741293E-05
               7.1361315512771090E-04
              -1.9213780300664466E-03
               3.7641920525458179E-04
               1.7205266298564055E-03
              -6.0727317693983385E-04
               7.9277929701291935E-03
              -4.3697572354102704E-03
               7.4501366418399358E-03
              -4.9914346995394675E-03
               3.1604740975672851E-04
              -1.4882850340348919E-03
              -3.1440981289540043E-03
               6.7511498834403995E-03
               6.2584522190585736E-03
              -4.5172558777764370E-03
              -8.9677855112747426E-04
               1.1247764422310239E-02
              -6.5773077374785636E-03
               5.6994033070525878E-03
              -4.9000563521243400E-03
              -1.3669765594530544E-03
               2.2256309043098168E-03
              -3.3146339572840337E-03
              -8.1451055311806651E-03
              -2.3571316717438291E-02
               1.5688351383186725E-02
               1.3813379743731705E-02
               2.0800834994209364E-03
              -4.1573302578255655E-03
               1.1162202114115141E-04
              -1.1042249509201870E-02
              -4.1944448888145032E-03
               1.7585808528063841E-02
              -7.0424734909123113E-03
              -7.4658922413006548E-03
               1.7214696932171532E-02
               9.4714932273262252E-04
               7.5322745957885854E-03
               1.2594763365083520E-03
               1.0911333383760251E-02
               7.0129156824635976E-03
              -2.0445257780572724E-03
              -2.8317540407850885E-03
              -1.0691014552104618E-02
               2.9550797606483895E-03
              -9.9333456791981536E-04
              -1.4989081867468070E-03
               2.3573217639574393E-04
              -8.1919935279370359E-03
              -2.3416921407098182E-02
               4.7881216876432256E-03
              -2.3699408430436168E-03
               1.6390089319353797E-02
               1.1954279111728234E-02
              -4.2180131465199720E-03
               6.9369317659284556E-03
              -1.9560500948222334E-03
              -3.2646237409195049E-03
              -8.6892801564014775E-03
               3.5588380413681853E-03
               1.2341604217672624E-02
              -7.0625869826430043E-03
              -6.5393733488304483E-03
              -4.3724701176340127E-04
               1.9172756549179035E-03
               2.3321428718131323E-03
              -1.9228877232157961E-04
               2.2866832677607026E-02
              -6.0124356686132047E-03
               3.2771813559073354E-03
              -5.4771176181842149E-03
              -1.2349141296151249E-02
               2.1620221897351750E-03
               1.8305140631203545E-03
               1.0480869869367816E-02
               5.8354273700596754E-03
              -6.3770325203121713E-03
              -2.5890880915384151E-03
              -9.2115827245053666E-03
              -1.2821896318678430E-03
               1.2537343026804397E-02
               2.4683113749174963E-03
               8.1262363507538047E-03
               6.8236022606404673E-03
               8.4934639454965696E-03
              -4.0662211892473141E-03
              -7.1724369862125248E-03
              -4.7779494942322238E-03
               5.0343351270818772E-03
              -2.9110714255628636E-04
               1.6911590270111501E-03
               5.7072456835934125E-03
               1.7528978158910652E-03
               1.0227713710924404E-02
              -2.0826871651794934E-02
               1.5099567221212171E-02
               7.8068075257340186E-03
              -1.0380863779940715E-02
              -6.3224531115224619E-03
               2.4727145036014682E-03
               4.7136703986973881E-03
              -1.4558284427127542E-03
              -3.5055767962524726E-03
               1.2163725435170419E-02
              -6.4428298105076208E-03
               4.3121081271596936E-03
               5.1474797632474209E-03
              -2.0648836905521054E-02
              -1.0710141670969368E-02
               4.1837031481383024E-03
               1.8015354987394442E-03
               9.2474363816629594E-03
              -9.1973331664446361E-03
              -4.4296608229049779E-03
              -1.5161309030882189E-03
              -6.2154102775144439E-03
               4.3740250667027329E-03
               2.1651177029816818E-03
              -4.5847422813633061E-03
              -3.9188821843567020E-03
              -3.4204322523365610E-04
               4.2268512289914215E-03
              -3.4607143845036671E-04
               8.6752398445829812E-03
              -8.8544675028545579E-03
              -3.9258589203543698E-04
              -5.2953730252810246E-03
              -2.2451304226629716E-03
              -2.9296252332584624E-03
              -1.1619094090944727E-03
               4.0815753600298710E-03
              -1.1235644932247181E-03
               1.3464783338447165E-03
               1.2991046520116610E-03
              -5.3651819308563314E-03
              -1.2026522817264720E-03
               5.6260481480356617E-04
              -7.0854482214710111E-03
              -5.8141962147591902E-04
               1.1059633262381244E-03
               5.3766871776606525E-03
               8.1257906452886081E-03
              -6.0673842661558225E-03
              -1.9235001989430798E-03
              -2.5596991882498774E-03
              -3.2532313133268732E-03
               3.6732553946571909E-03
              -7.5449421473788494E-03
              -1.7029884844643409E-03
               1.8622506046994910E-03
               1.4204874954195904E-02
               4.5538002741352755E-03
               3.9058896829839082E-03
               3.2178574315340487E-03
               3.9033101983168938E-03
              -8.5587764411944886E-04
              -5.0683638958578681E-03
              -9.8455770074021114E-04
               8.9170999757712099E-03
              -2.8837769195901673E-03
              -6.0190128858129948E-03
               6.3155633483128089E-03
              -6.6237670064646275E-03
               3.1683056300385805E-03
              -7.0236121268030575E-04
              -1.5210948178555945E-02
               4.9650043164651946E-03
               9.4514658605023925E-03
               1.5373665326467929E-02
              -7.8327487544287144E-03
              -3.6265422829643338E-03
         &END THERMOSTAT_ENERGY
         &RNG_INIT
Wiener process for Thermostat # 1        1 F T T  -1.5601997779545997E+00        4027757407.0        1559045809.0        3403552754.0        1703120254.0         453778739.0        2861026355.0             12345.0             12345.0             12345.0             12345.0             12345.0             12345.0             12345.0             12345.0             12345.0             12345.0             12345.0             12345.0
Wiener process for Thermostat # 2        1 F T T  -4.0112764818655514E-02        3838101567.0        1430396723.0        1556923290.0        2889325561.0         607612135.0        3761282217.0        3692455944.0        1366884236.0        2968912127.0         335948734.0        4161675175.0         475798818.0        3692455944.0        1366884236.0        2968912127.0         335948734.0        4161675175.0         475798818.0
Wiener process for Thermostat # 3        1 F T T  -2.7485675335982579E-01         482699311.0        2506409672.0        1202736307.0        1073196783.0        1141297417.0        2856513754.0        1015873554.0        1310354410.0        2249465273.0         994084013.0        2912484720.0        3876682925.0        1015873554.0        1310354410.0        2249465273.0         994084013.0        2912484720.0        3876682925.0
Wiener process for Thermostat # 4        1 F T T  -9.8957058820594379E-01        3129827523.0        3549124345.0        1353678049.0        1344233659.0        2578763699.0        1106953444.0        2338701263.0        1119171942.0        2570676563.0         317077452.0        3194180850.0         618832124.0        2338701263.0        1119171942.0        2570676563.0         317077452.0        3194180850.0         618832124.0
Wiener process for Thermostat # 5        1 F T T   8.1743834600370391E-01         587879607.0         702838090.0         820286405.0        1159088393.0        1840431053.0        2379049004.0        1597262096.0        3906379055.0        3312112953.0        1016013135.0        4099474108.0         275305423.0        1597262096.0        3906379055.0        3312112953.0        1016013135.0        4099474108.0         275305423.0
Wiener process for Thermostat # 6        1 F T T  -4.6635220676026440E-01        1255338812.0        2941627828.0        2767710176.0        1701464963.0        2824905014.0        2257709657.0          97147054.0        3131372450.0         829345164.0        3691032523.0        3006063034.0        4259826321.0          97147054.0        3131372450.0         829345164.0        3691032523.0        3006063034.0        4259826321.0
Wiener process for Thermostat # 7        1 F T T  -2.7221417990508723E-01        2928923925.0        1475590831.0        3028549759.0        1729569924.0         123262326.0        1965188850.0         796079799.0        2105258207.0         955365076.0        2923159030.0        4116632677.0        3067683584.0         796079799.0        2105258207.0         955365076.0        2923159030.0        4116632677.0        3067683584.0
Wiener process for Thermostat # 8        1 F T T  -1.3371509559371584E+00        3293786404.0        2324351260.0        4224364702.0        1341956089.0         912321799.0        2697559406.0        3281794178.0        2616230133.0        1457051261.0        2762791137.0        2480527362.0        2282316169.0        3281794178.0        2616230133.0        1457051261.0        2762791137.0        2480527362.0        2282316169.0
Wiener process for Thermostat # 9        1 F T T  -8.7225140957356684E-01         657961678.0        1513147170.0        2219186603.0        4111646695.0         616753226.0        2747528653.0        3777646647.0        1837464056.0        4204654757.0         664239048.0        4190510072.0        2959195122.0        3777646647.0        1837464056.0        4204654757.0         664239048.0        4190510072.0        2959195122.0
Wiener process for Thermostat # 10       1 F T T  -6.2889449580622436E-01          96284293.0        2446379684.0        3801610533.0        2961863039.0        1877110468.0         129512113.0        4215590817.0        3862461878.0        1087200967.0        1544910132.0         936383720.0        1611370123.0        4215590817.0        3862461878.0        1087200967.0        1544910132.0         936383720.0        1611370123.0
Wiener process for Thermostat # 11       1 F T T   5.7191327297384098E-01         909895394.0        1862319182.0        2400367466.0        1201802882.0        2818881371.0          83822050.0        1683636369.0         362165168.0         814316280.0         869382050.0         980203903.0        2062101717.0        1683636369.0         362165168.0         814316280.0         869382050.0         980203903.0        2062101717.0
Wiener process for Thermostat # 12       1 F T T  -2.0098512161557830E-01        4281566709.0        2729512869.0         275332126.0         437149450.0        1041778670.0        1778805263.0         272317999.0         166758548.0         310112982.0         201045826.0        1680231254.0         118290799.0         272317999.0         166758548.0         310112982.0         201045826.0        1680231254.0         118290799.0
Wiener process for Thermostat # 13       1 F T T   9.4560796151122029E-01        3557498645.0        2583014714.0        2425630516.0         920535172.0        3770643442.0         978988578.0        2245755202.0        1652682525.0        2865544364.0         721509566.0         209733568.0         592362218.0        2245755202.0        1652682525.0        2865544364.0         721509566.0         209733568.0         592362218.0