 # Version information for this restart file 
 # current date 2022-11-29 18:45:21.114
 # current working dir /scratch/work/courses/CHEM-GA-2671-2022fa/ns3539/comp-lab-class/Week12/Runs/Proton
 # Program compiled at                              Sat Dec 12 18:27:15 EST 2020
 # Program compiled on                                         cs001.nyu.cluster
 # Program compiled for                                                nyu-intel
 # Source code revision number                                       git:8c64c6e
 &GLOBAL
   PRINT_LEVEL  LOW
   PROJECT_NAME proton_aimd_1ns_every0.5fs
   RUN_TYPE  MD
   WALLTIME 21600
 &END GLOBAL
 &MOTION
   &GEO_OPT
     OPTIMIZER  BFGS
     MAX_ITER  100
     MAX_DR     3.0000000000000001E-03
     &BFGS
     &END BFGS
   &END GEO_OPT
   &MD
     ENSEMBLE  NVT
     STEPS  2000
     TIMESTEP     4.9999999999999994E-01
     STEP_START_VAL  1500
     TIME_START_VAL     7.5000000000000762E+02
     ECONS_START_VAL    -1.1027954174996337E+03
     TEMPERATURE     3.0000000000000000E+02
     &THERMOSTAT
       TYPE  GLE
       REGION  MASSIVE
       &GLE
         NDIM  5
         A_SCALE     1.0000000000000000E+00
         A_LIST     1.8595758612559999E+02    2.7263853498399998E-01    1.1526100454610001E+01   -3.6414578262600003E+01 \
             2.3173375816020001E+02
         A_LIST    -2.7809524712060002E-01    8.5951591808710006E-05    7.2189048017650004E-01   -1.9844539343859999E-01 \
             4.2409257583420001E-01
         A_LIST    -1.4825808131210000E+01   -7.2189048017650004E-01    1.3590902121280000E+00    5.1498896280349999E+00 \
            -9.9949268450990001E+00
         A_LIST    -1.0372189126880000E+01    1.9844539343859999E-01   -5.1498896280349999E+00    2.6661910891169999E+01 \
             1.1507715495310000E+01
         A_LIST     2.1801346360420001E+02   -4.2409257583420001E-01    9.9949268450990001E+00   -1.1507715495310000E+01 \
             3.0958394565589998E+02
         &THERMOSTAT_ENERGY
               3.0842593457064199E-03
               3.4041351896066494E-05
              -2.1640660271128489E-03
               7.1919423553433899E-03
              -1.3982802609912321E-02
              -2.7319390064128560E-03
              -2.5843248480567559E-05
               1.0329040578347971E-03
               1.8021736265291003E-03
               4.5798521463802644E-03
               5.0521494143243540E-03
              -5.5545770388940232E-03
              -7.2118976912668052E-03
              -7.3657029435944231E-03
               8.4842762044950639E-03
              -4.8666575632797257E-03
               7.9722531947663301E-03
              -5.5734615132977307E-03
               2.3032643656390548E-03
              -3.1734380377984313E-03
              -1.3986495549780047E-04
               5.8540905189780525E-03
              -1.1483084732368915E-02
              -2.2632522247297425E-03
               3.7829956457301234E-03
              -8.0862838314145064E-03
               5.0791913688196131E-03
               3.1796791426584353E-03
               3.7312063275077301E-03
               3.0241320199643268E-03
              -2.0994252535206656E-03
              -2.9556597455242251E-03
               9.1588779806424034E-03
               3.7936614173986662E-03
              -1.1327733950595295E-02
               1.8604305057890486E-02
              -1.5621542671977434E-03
              -4.2600228130386261E-04
              -1.4199363059209050E-03
              -6.3897047187875069E-04
               9.5866323118164731E-03
              -4.0612952492968474E-03
               5.0853383395490408E-03
               5.2881653066241532E-03
              -3.7137243466566780E-03
               1.1029011851570491E-03
              -2.9323581420327254E-03
               3.3645009434948138E-03
               4.9457800742461341E-04
               7.8364943455606212E-03
              -1.7042281453097325E-03
              -6.8981821754265189E-03
              -5.0774419856634964E-03
               1.7032666589448849E-03
              -6.7956877756529281E-03
               7.8879732293020699E-03
              -4.8876645296198505E-03
               1.2151307235382575E-03
               9.3332906526420005E-03
               2.7602577454179282E-03
              -7.3786514592333033E-03
              -3.5489906305219282E-03
               1.4068486891498224E-02
              -6.2871946531774274E-03
               1.0898020722312767E-03
               4.0836539386421991E-03
              -9.3961802330940914E-03
               1.3958340969028624E-02
               5.5047446843449694E-03
              -8.6981836092345653E-05
              -1.0444983039009415E-02
               4.9853343183154696E-03
              -3.5418174946713252E-03
              -6.6253147794109366E-05
              -2.5060151834281797E-03
              -9.8348313294412404E-03
               1.3740025118949645E-02
               9.1044361625301443E-03
               6.9629837076117702E-03
              -4.8003776093813949E-03
              -1.6275761130133206E-03
              -1.5840649180682363E-03
               6.2996172363002814E-04
              -8.4573005922121197E-05
               1.7095003215682040E-03
               6.4224528661370288E-03
               1.9065608058615748E-03
              -2.1367120329169641E-03
               6.9062729677042377E-03
              -8.0054941697087455E-03
               5.3340012001610133E-03
              -3.9456600097686123E-03
               2.7838704122390570E-03
              -3.1037781174267122E-03
              -7.9574243407996223E-03
               1.2378892670330694E-02
               8.9653456656583780E-04
               7.2818306864040931E-04
               8.3244733160324339E-04
               5.3323514618605419E-03
               5.4127215041813604E-03
               1.3250744832646701E-03
              -8.0949142525106599E-03
               6.7523712004970357E-03
               4.4946504161323163E-03
               1.7238018529936370E-02
              -4.8373638550234192E-03
              -2.9293278572058807E-03
               9.2471092056645981E-03
              -9.6342671072653110E-04
              -4.9844005307918358E-04
              -3.1746520129474318E-03
               1.0789357961690785E-02
               1.1076995894520429E-02
               6.9029282845560502E-04
               4.3354634278151977E-03
              -7.8209810159426234E-03
               4.0228210494065364E-03
               4.5042403861337045E-03
              -1.0241973253904101E-03
               1.4494449626771752E-03
              -3.2483035862732467E-03
               1.7561764568104423E-03
               7.6144080300780299E-03
              -4.3760530909915602E-03
              -9.3769423436804149E-03
               8.8421278855105520E-03
              -4.0809699047667678E-03
               2.4668612294430504E-03
              -1.0460629014710230E-03
              -8.4032131827107403E-03
               5.7063347328894370E-03
               4.3973283395722486E-03
              -8.5893709717690275E-04
              -1.4515074176031134E-03
               5.8304302781079613E-03
              -3.1533770006658256E-03
              -5.5313463951052093E-03
               6.5670353669079933E-03
              -9.5721077844494202E-03
              -5.8674545807752525E-05
               1.8582463059006549E-03
               9.2169268669430454E-03
               1.3770697597079162E-03
              -6.7907916929226750E-03
              -5.9151544288239301E-03
               1.1717809835755280E-02
              -3.1626604759106311E-03
              -3.6594558278910572E-03
               3.9928721776023397E-03
              -9.8428648272397990E-03
               1.5866600081740758E-02
              -5.4968027478239289E-03
              -1.6559190825619413E-03
               3.0633786838936317E-03
               4.2605383024927491E-03
              -1.7522616496960389E-03
              -4.5339761799865937E-03
               1.5152949904777043E-03
              -1.7767335780182803E-03
               2.8746236377363687E-03
              -2.6637003916394333E-03
               2.8296599582722129E-03
              -5.4954008882510846E-05
               1.0304945168864337E-02
               1.4294978862777970E-02
               8.5793822280114747E-04
              -1.9183210668179844E-02
              -5.1842798307760425E-03
               4.1875626159857257E-03
               2.6852729235576876E-03
               4.4177925058829452E-03
              -1.6380147945436296E-03
               2.5414685992946424E-03
              -2.1150397787669017E-04
               1.4534922827125121E-02
              -2.4499124214259746E-02
              -4.2847680937724989E-03
              -3.2811656538183332E-03
               1.1755027615727160E-02
               6.2589613220105059E-04
              -4.7126864096244878E-03
               2.5168715726482764E-03
              -1.8418092578727809E-02
               1.6345070811994020E-02
              -1.5128225844782874E-04
              -1.0106691927129621E-02
               5.5949257717595640E-03
              -4.7700369032672172E-03
               1.1323114084674788E-03
               4.7620246717210175E-03
              -2.2990048349757469E-03
              -4.1914526737805288E-03
               9.1805483491374136E-03
               3.9932513233283968E-03
              -1.3071988106479514E-03
              -4.7724385905800358E-03
               7.6659342881899703E-03
              -1.1305972033994385E-03
               2.1090596928960582E-03
              -3.4005554013511637E-03
              -4.5007806522329935E-03
               8.8560529125759502E-03
               3.4915632581853408E-03
              -2.0719603149516987E-03
               5.3305919925707625E-03
              -9.9047200070285172E-03
               9.6059055027937512E-04
               4.1790397748169986E-03
              -2.0397295006220491E-03
               3.8169583023255180E-03
              -9.5282749944277569E-03
               7.7246945993385274E-03
              -7.2804702403254928E-03
               7.3104852151796964E-03
               7.8269472202223325E-03
              -2.7137831129819207E-03
               7.5862016952601237E-03
              -2.9839863428260376E-03
              -5.6633230959612898E-03
               4.8011097749572360E-03
              -1.1418451961113208E-02
              -7.9993129678677249E-04
              -1.0240862489178357E-02
               3.3407853671111884E-03
               5.2139667411080703E-03
               1.2779779183614986E-03
               2.2657493371133529E-03
              -4.2447038340016575E-03
               4.1323459575582696E-03
              -2.5869346745067048E-03
              -3.3598975936309826E-03
               8.7666054569829517E-03
              -4.4990445377205736E-03
               4.6234038995459827E-03
              -4.3481756912145935E-03
              -1.4382818769573770E-03
              -2.9090501249375649E-03
              -1.4172702447653156E-03
               1.9908979652248976E-03
               8.7381505113601193E-03
              -6.6505535914180474E-04
              -1.1203116443616234E-03
               5.1473912374212208E-04
               1.7721675996535747E-03
               5.3052092089911265E-05
              -4.6879003802545683E-03
               3.2005702975120951E-03
               4.8063964437067936E-04
              -3.6752996914995546E-03
               6.0641097135790845E-03
              -2.1707583725592353E-03
              -1.0689447523188865E-02
              -3.8073920713335568E-03
               5.5631412025662803E-03
              -5.4468217885508506E-03
               1.5924061304469338E-02
              -1.0034121046757001E-02
               5.8792235114439172E-04
              -1.2034793836209463E-02
               1.1913491281937812E-02
               3.8924686193583628E-03
              -1.7443275562590338E-03
              -2.0502122241874330E-03
              -5.9975713823659941E-03
               7.0439286111886575E-04
               6.5926323578402767E-03
               6.7037521413344002E-03
               6.2320876060122977E-04
               5.7234182189076508E-03
               2.6113864716382988E-02
               6.5512530961292972E-03
               1.7660113966224592E-02
               5.5647130582124329E-03
               2.5594364978341277E-03
              -2.3900125023269556E-03
              -7.3918462307409486E-03
               8.4052046505117602E-03
              -2.6743889943784765E-03
               4.9236110625999730E-04
              -5.3457735126822229E-03
              -2.5478391795865187E-04
               6.9375401128423508E-03
               2.2962537216173777E-03
               3.5824939663507980E-03
               1.2030037172360616E-03
              -5.5323075686763534E-04
               6.7372776020069121E-03
              -1.1676725210368751E-02
               6.6407491782241737E-03
               6.1261117571085209E-03
               1.8552099660938670E-03
              -4.0478364336139000E-03
               1.0134774277970784E-03
               4.5964211467012578E-03
               1.9634548404014072E-03
              -1.3245985917795997E-02
               4.4728905485989338E-03
               1.5027175427990532E-02
              -1.0095861668815775E-02
              -3.6262663838578547E-03
               5.4245809175270760E-03
               4.0368746374631450E-03
               1.9481709606758088E-02
              -4.5332981989776380E-03
              -1.0434676234431057E-02
              -3.1699569213390617E-03
               2.8308877394014674E-03
               4.8231613992051310E-03
               6.2575532087920651E-03
              -2.2098371967247885E-03
              -2.1845337799999177E-03
               1.7421204709650066E-03
              -1.8455206106177413E-03
               3.8350151821158573E-03
              -1.9217743445060001E-03
              -8.8106725780426019E-03
              -4.7860709260887221E-03
              -1.3191847540387186E-02
              -9.9379559875054941E-03
              -1.3527469491091150E-03
              -5.2493422702424826E-03
               1.5194063069668736E-03
              -1.8818357184131340E-03
               1.2013149230119915E-04
               1.5489552237486742E-02
               6.2106902352894655E-03
               5.0735174438219224E-04
               6.3345895085741705E-04
               1.6414636475551797E-03
              -2.3876177143595662E-03
               5.6175838821112475E-03
               3.7890836581389153E-03
              -3.2748729114116318E-03
               1.0732473649266482E-03
              -3.8716911983668768E-03
               3.2070700529849129E-04
              -5.9471510919108391E-04
               2.6208738394693943E-03
               9.3643279514593041E-03
              -9.4599092210398104E-03
              -2.8828518812684239E-04
               1.0233612508029431E-02
              -1.2833460046344414E-03
               4.3527959516043799E-03
               1.6765772063729787E-03
               5.7680736907775206E-03
              -8.4302226081767618E-03
               7.9054499490634651E-03
               1.6599031717939188E-04
              -1.1473057887924255E-02
              -1.8845731082991631E-03
              -4.0845266049756258E-03
               1.4946921627835518E-03
               4.0002600048570291E-03
              -3.1846935814683832E-03
               6.0637655321783010E-04
              -9.8406043312294147E-03
              -2.1928222324807509E-03
              -1.7154187364632613E-03
              -3.9440071347226196E-03
               3.0399354438821460E-03
               8.8795166957545048E-03
              -3.6930005768395346E-03
              -3.5170580522457533E-03
               1.9442417917782829E-03
               9.3037447174332526E-04
               5.8579310127078559E-03
              -1.4139913832166373E-02
              -1.3238490932924627E-04
               1.0579434253144872E-07
               8.7919596745064891E-03
              -2.9938418935050140E-03
              -2.4826239367220317E-03
               1.5326494703277432E-04
               2.6787910390455296E-03
              -1.2617929681581978E-02
              -1.2916762360136924E-02
               3.1787448863896512E-03
               8.9985242034783114E-03
               2.3357149970455269E-03
               2.9015095050153972E-03
              -3.1685867187057507E-04
              -1.1298719552733636E-03
              -1.6626026657279372E-02
              -1.0695944375936131E-03
               4.2914655642301335E-03
               3.4761677463312031E-03
               3.8904090528477271E-03
              -2.1439001369785710E-05
              -5.4648298978381650E-03
               9.3167552353768217E-03
               8.3259109339752185E-04
              -2.1567716263819043E-03
               5.8177654698615428E-03
              -2.6921584231116144E-03
              -7.7477329834617012E-03
              -1.7063491782019834E-04
               2.8510045836458781E-04
              -2.2731251748630030E-03
               1.2160509605740508E-03
               4.0541564630799656E-03
              -4.8489802722102944E-03
              -6.3508753805926171E-03
              -5.6285232528209966E-03
               7.1042242675709352E-03
               4.8855972150624750E-05
              -5.7418423670733592E-03
               4.3275197968457337E-04
               2.9305977522869949E-03
              -2.7276725859032259E-04
               3.4469654710840607E-05
              -1.5355053515483776E-03
               1.4947138993064329E-03
              -2.1611275465549793E-03
               5.1150973744703834E-03
               5.1201723554832115E-03
               1.6780470616397673E-03
               1.4696340473047116E-03
              -5.5609781263573472E-04
               3.4864842815426119E-03
              -4.0635675911689997E-03
               1.4826981610803450E-03
              -5.3414377346070749E-03
               1.1553670079848260E-02
              -2.4721494011354594E-03
               2.3175295670819170E-03
              -4.8676921942244914E-03
              -2.3433464662330392E-03
               2.1254863628964314E-03
              -6.8571785619181745E-03
              -7.0721126569381777E-03
              -2.1871853874910429E-02
               1.2919548566071366E-02
               1.5409491260151703E-02
               5.9261009358352592E-03
              -7.3524549157678813E-03
               1.0052647178458831E-03
              -2.2414788631798682E-03
               1.6843012881206755E-04
               1.1778608039032813E-02
              -3.5229641458374029E-03
              -5.5928039347114275E-03
               1.4302120160763163E-02
              -1.5348188733043926E-03
               6.5958795998684351E-03
               8.3667910139081265E-03
               8.1547410674583341E-03
               4.9686299011085918E-03
              -9.9203313269836599E-03
              -1.5655587230069140E-03
              -5.3389970649123774E-03
              -1.5100891393047627E-03
              -2.6129154999263719E-03
              -2.6648296137789106E-03
              -1.2097125175296814E-03
              -9.9152823482731682E-03
              -1.4799937639374807E-02
               4.9765772398603549E-03
               1.5739745065139967E-03
               1.3932025736487439E-02
               4.1334189386485710E-03
              -2.5352575173249407E-04
               5.1758509113197931E-03
               3.3661159783881030E-03
              -5.9934001833889059E-04
              -7.5441456387265087E-03
              -1.7737685006002622E-03
               9.4230021356898185E-03
              -6.6968444373052020E-03
              -7.1292942652473245E-03
               2.3697496663723267E-03
               2.7476863388010897E-03
               3.6732187607511485E-03
              -6.1692521721220107E-04
               6.4409491611358439E-03
              -2.0792575324793967E-03
               1.0799103003565746E-03
              -1.9527598842413096E-03
              -3.4477270399969930E-03
               1.1068666642798639E-03
              -2.2686401526036265E-03
               8.8486987842507862E-03
               3.2291139685765454E-03
              -3.6639297050297922E-03
              -8.4396818116305977E-04
              -2.9853895917743168E-03
               2.9871982256693245E-04
               8.8562770517556910E-03
              -6.6060632540111415E-04
               8.8813536177928323E-03
               3.5279010523858465E-03
               2.3116230443299621E-03
              -1.0844659295974968E-03
              -5.5360751473886565E-03
              -3.4708838559085620E-03
               2.5401568575642544E-03
               2.4010801710969624E-03
               5.9079665748932621E-03
               4.6461230656763240E-03
               1.8365757574957189E-03
               7.7250551723191795E-03
              -1.5395377115998529E-02
               1.1515419244540850E-02
               2.0299538492404724E-03
              -9.9300948827022919E-03
              -8.2841300317630095E-03
               1.4878610498710036E-03
               5.4429910323558475E-03
              -6.2977493547967489E-04
              -5.8709967692439522E-03
               9.2648249420757330E-03
              -6.1560008968784422E-03
               2.4959356669525690E-03
               1.0482327180145011E-02
              -2.0121983422501634E-02
              -1.0380021275805652E-02
               4.5940203962707470E-03
               2.1890749854611919E-03
               6.1762082372740553E-03
              -1.1247286494099659E-02
               5.7424590432321920E-04
              -1.0631125891895235E-03
              -8.8274789393750202E-03
               2.3597836621342826E-03
               2.0159700115244903E-03
              -3.3612216450506893E-03
              -2.6996878196653964E-03
              -9.7960641252987186E-04
               6.5904095618727673E-03
               9.0018394991129094E-04
               6.9057739482781960E-03
              -5.3862786327214139E-03
              -2.8316784930731264E-03
              -4.3260339834430128E-03
              -1.3960715799986065E-03
              -4.5859338293348823E-04
              -1.3248421178821217E-03
               3.2665280400470493E-03
               2.8919705824585239E-03
               6.4393911912123875E-05
              -3.8695905253229830E-03
              -5.2402244014084168E-03
              -2.8182678977083461E-04
               1.0666607842198281E-03
              -1.4193294015606671E-03
               3.7821913626539540E-03
               1.7314274458717865E-03
               5.0700422656554779E-03
               1.1157365175681375E-02
              -1.6394220681342001E-02
              -7.2697501419324677E-03
              -2.0006298850227715E-03
              -5.2551273678905861E-03
               6.7665175255679152E-03
              -2.4002719831716854E-03
              -9.0410422804871812E-04
              -3.3216768472302620E-03
               1.0840915337613919E-02
               2.7050127999857985E-04
               5.7273878350034071E-03
               1.8719593303245811E-03
               3.1412575065914682E-03
              -4.7305622599142644E-03
              -2.1124667583917165E-03
              -5.7177786678550141E-03
               7.7349930922617129E-03
               3.2445324489244524E-04
               1.1208896879044280E-03
              -3.1748018783049863E-04
              -5.5737080973512548E-05
              -1.3061571772147640E-04
               7.6945015738778160E-04
              -1.7950601746679156E-02
               8.9101795218848676E-03
               3.3911340978659246E-03
               1.1274821776888221E-02
              -1.5378242528905626E-03
              -7.1391716363862394E-03
         &END THERMOSTAT_ENERGY
         &RNG_INIT
Wiener process for Thermostat # 1        1 F T T   1.0570193072987602E-01        2554248455.0        3733268398.0        2096963647.0         915983833.0        1292997779.0         989563289.0             12345.0             12345.0             12345.0             12345.0             12345.0             12345.0             12345.0             12345.0             12345.0             12345.0             12345.0             12345.0
Wiener process for Thermostat # 2        1 F T T  -5.0729818522276993E-01         187792199.0        1332764939.0        1272087322.0         282682701.0         988697858.0        4086000388.0        3692455944.0        1366884236.0        2968912127.0         335948734.0        4161675175.0         475798818.0        3692455944.0        1366884236.0        2968912127.0         335948734.0        4161675175.0         475798818.0
Wiener process for Thermostat # 3        1 F T T   8.9774137220556466E-02        3755061031.0        1753083868.0        1351179932.0         343881147.0        3312142877.0        1244557929.0        1015873554.0        1310354410.0        2249465273.0         994084013.0        2912484720.0        3876682925.0        1015873554.0        1310354410.0        2249465273.0         994084013.0        2912484720.0        3876682925.0
Wiener process for Thermostat # 4        1 F T T   2.1447125495896904E-01        2430503636.0         902227617.0        3039217662.0         205693714.0        2375800914.0        4220709598.0        2338701263.0        1119171942.0        2570676563.0         317077452.0        3194180850.0         618832124.0        2338701263.0        1119171942.0        2570676563.0         317077452.0        3194180850.0         618832124.0
Wiener process for Thermostat # 5        1 F T T  -7.4974817695318574E-01        3949927612.0        4293465109.0         224208328.0         677588237.0        2173092809.0        2514687022.0        1597262096.0        3906379055.0        3312112953.0        1016013135.0        4099474108.0         275305423.0        1597262096.0        3906379055.0        3312112953.0        1016013135.0        4099474108.0         275305423.0
Wiener process for Thermostat # 6        1 F T T  -2.3195632299180402E+00        4147399821.0         968438491.0         174961265.0         382156541.0        3672303660.0        2385050302.0          97147054.0        3131372450.0         829345164.0        3691032523.0        3006063034.0        4259826321.0          97147054.0        3131372450.0         829345164.0        3691032523.0        3006063034.0        4259826321.0
Wiener process for Thermostat # 7        1 F T T  -8.3038096976097500E-03        3725962017.0        3124905816.0        1692649901.0        3685368087.0         990134651.0        3321809881.0         796079799.0        2105258207.0         955365076.0        2923159030.0        4116632677.0        3067683584.0         796079799.0        2105258207.0         955365076.0        2923159030.0        4116632677.0        3067683584.0
Wiener process for Thermostat # 8        1 F T T   7.2955713326517235E-01        1426374835.0        1022225665.0        3431852557.0        2945126969.0        1347790872.0        2047858768.0        3281794178.0        2616230133.0        1457051261.0        2762791137.0        2480527362.0        2282316169.0        3281794178.0        2616230133.0        1457051261.0        2762791137.0        2480527362.0        2282316169.0
Wiener process for Thermostat # 9        1 F T T  -8.3876742673612970E-01        3633457436.0         863053678.0         665967915.0         928783000.0        4027924725.0        3556250224.0        3777646647.0        1837464056.0        4204654757.0         664239048.0        4190510072.0        2959195122.0        3777646647.0        1837464056.0        4204654757.0         664239048.0        4190510072.0        2959195122.0
Wiener process for Thermostat # 10       1 F T T  -6.7138423863751628E-01        3282585865.0         909372753.0         488063086.0        2442536289.0         174422437.0         477575080.0        4215590817.0        3862461878.0        1087200967.0        1544910132.0         936383720.0        1611370123.0        4215590817.0        3862461878.0        1087200967.0        1544910132.0         936383720.0        1611370123.0
Wiener process for Thermostat # 11       1 F T T  -7.2169956836733329E-02        3039538231.0          25912629.0        1608189467.0        1823124278.0        2331127605.0        2449500504.0        1683636369.0         362165168.0         814316280.0         869382050.0         980203903.0        2062101717.0        1683636369.0         362165168.0         814316280.0         869382050.0         980203903.0        2062101717.0
Wiener process for Thermostat # 12       1 F T T  -6.7722400494670465E-01        2762226669.0        4262778377.0        2250707948.0        3120407528.0        3704866228.0        1185520965.0         272317999.0         166758548.0         310112982.0         201045826.0        1680231254.0         118290799.0         272317999.0         166758548.0         310112982.0         201045826.0        1680231254.0         118290799.0
Wiener process for Thermostat # 13       1 F T T  -7.3817531449270457E-01        3689403510.0         367299738.0        3636386471.0        1925893934.0        3355800516.0        3520562622.0        2245755202.0        1652682525.0        2865544364.0         721509566.0         209733568.0         592362218.0        2245755202.0        1652682525.0        2865544364.0         721509566.0         209733568.0         592362218.0